1250
Lattice="61.5 0.0 0.0 -30.75 53.26056233274298 0.0 0.0 -0.0 40.0" Properties=species:S:1:pos:R:3 pbc="T T F"
C        0.00000000       0.00000000      20.00000000
C        1.23000000       0.71014083      20.00000000
C       -1.23000000       2.13042249      20.00000000
C        0.00000000       2.84056332      20.00000000
C       -2.46000000       4.26084499      20.00000000
C       -1.23000000       4.97098582      20.00000000
C       -3.69000000       6.39126748      20.00000000
C       -2.46000000       7.10140831      20.00000000
C       -4.92000000       8.52168997      20.00000000
C       -3.69000000       9.23183080      20.00000000
C       -6.15000000      10.65211247      20.00000000
C       -4.92000000      11.36225330      20.00000000
C       -7.38000000      12.78253496      20.00000000
C       -6.15000000      13.49267579      20.00000000
C       -8.61000000      14.91295745      20.00000000
C       -7.38000000      15.62309828      20.00000000
C       -9.84000000      17.04337995      20.00000000
C       -8.61000000      17.75352078      20.00000000
C      -11.07000000      19.17380244      20.00000000
C       -9.84000000      19.88394327      20.00000000
C      -12.30000000      21.30422493      20.00000000
C      -11.07000000      22.01436576      20.00000000
C      -13.53000000      23.43464743      20.00000000
C      -12.30000000      24.14478826      20.00000000
C      -14.76000000      25.56506992      20.00000000
C      -13.53000000      26.27521075      20.00000000
C      -15.99000000      27.69549241      20.00000000
C      -14.76000000      28.40563324      20.00000000
C      -17.22000000      29.82591491      20.00000000
C      -15.99000000      30.53605574      20.00000000
C      -18.45000000      31.95633740      20.00000000
C      -17.22000000      32.66647823      20.00000000
C      -19.68000000      34.08675989      20.00000000
C      -18.45000000      34.79690072      20.00000000
C      -20.91000000      36.21718239      20.00000000
C      -19.68000000      36.92732322      20.00000000
C      -22.14000000      38.34760488      20.00000000
C      -20.91000000      39.05774571      20.00000000
C      -23.37000000      40.47802737      20.00000000
C      -22.14000000      41.18816820      20.00000000
C      -24.60000000      42.60844987      20.00000000
C      -23.37000000      43.31859070      20.00000000
C      -25.83000000      44.73887236      20.00000000
C      -24.60000000      45.44901319      20.00000000
C      -27.06000000      46.86929485      20.00000000
C      -25.83000000      47.57943568      20.00000000
C      -28.29000000      48.99971735      20.00000000
C      -27.06000000      49.70985818      20.00000000
C      -29.52000000      51.13013984      20.00000000
C      -28.29000000      51.84028067      20.00000000
C        2.46000000       0.00000000      20.00000000
C        3.69000000       0.71014083      20.00000000
C        1.23000000       2.13042249      20.00000000
C        2.46000000       2.84056332      20.00000000
C        0.00000000       4.26084499      20.00000000
C        1.23000000       4.97098582      20.00000000
C       -1.23000000       6.39126748      20.00000000
C        0.00000000       7.10140831      20.00000000
C       -2.46000000       8.52168997      20.00000000
C       -1.23000000       9.23183080      20.00000000
C       -3.69000000      10.65211247      20.00000000
C       -2.46000000      11.36225330      20.00000000
C       -4.92000000      12.78253496      20.00000000
C       -3.69000000      13.49267579      20.00000000
C       -6.15000000      14.91295745      20.00000000
C       -4.92000000      15.62309828      20.00000000
C       -7.38000000      17.04337995      20.00000000
C       -6.15000000      17.75352078      20.00000000
C       -8.61000000      19.17380244      20.00000000
C       -7.38000000      19.88394327      20.00000000
C       -9.84000000      21.30422493      20.00000000
C       -8.61000000      22.01436576      20.00000000
C      -11.07000000      23.43464743      20.00000000
C       -9.84000000      24.14478826      20.00000000
C      -12.30000000      25.56506992      20.00000000
C      -11.07000000      26.27521075      20.00000000
C      -13.53000000      27.69549241      20.00000000
C      -12.30000000      28.40563324      20.00000000
C      -14.76000000      29.82591491      20.00000000
C      -13.53000000      30.53605574      20.00000000
C      -15.99000000      31.95633740      20.00000000
C      -14.76000000      32.66647823      20.00000000
C      -17.22000000      34.08675989      20.00000000
C      -15.99000000      34.79690072      20.00000000
C      -18.45000000      36.21718239      20.00000000
C      -17.22000000      36.92732322      20.00000000
C      -19.68000000      38.34760488      20.00000000
C      -18.45000000      39.05774571      20.00000000
C      -20.91000000      40.47802737      20.00000000
C      -19.68000000      41.18816820      20.00000000
C      -22.14000000      42.60844987      20.00000000
C      -20.91000000      43.31859070      20.00000000
C      -23.37000000      44.73887236      20.00000000
C      -22.14000000      45.44901319      20.00000000
C      -24.60000000      46.86929485      20.00000000
C      -23.37000000      47.57943568      20.00000000
C      -25.83000000      48.99971735      20.00000000
C      -24.60000000      49.70985818      20.00000000
C      -27.06000000      51.13013984      20.00000000
C      -25.83000000      51.84028067      20.00000000
C        4.92000000       0.00000000      20.00000000
C        6.15000000       0.71014083      20.00000000
C        3.69000000       2.13042249      20.00000000
C        4.92000000       2.84056332      20.00000000
C        2.46000000       4.26084499      20.00000000
C        3.69000000       4.97098582      20.00000000
C        1.23000000       6.39126748      20.00000000
C        2.46000000       7.10140831      20.00000000
C        0.00000000       8.52168997      20.00000000
C        1.23000000       9.23183080      20.00000000
C       -1.23000000      10.65211247      20.00000000
C       -0.00000000      11.36225330      20.00000000
C       -2.46000000      12.78253496      20.00000000
C       -1.23000000      13.49267579      20.00000000
C       -3.69000000      14.91295745      20.00000000
C       -2.46000000      15.62309828      20.00000000
C       -4.92000000      17.04337995      20.00000000
C       -3.69000000      17.75352078      20.00000000
C       -6.15000000      19.17380244      20.00000000
C       -4.92000000      19.88394327      20.00000000
C       -7.38000000      21.30422493      20.00000000
C       -6.15000000      22.01436576      20.00000000
C       -8.61000000      23.43464743      20.00000000
C       -7.38000000      24.14478826      20.00000000
C       -9.84000000      25.56506992      20.00000000
C       -8.61000000      26.27521075      20.00000000
C      -11.07000000      27.69549241      20.00000000
C       -9.84000000      28.40563324      20.00000000
C      -12.30000000      29.82591491      20.00000000
C      -11.07000000      30.53605574      20.00000000
C      -13.53000000      31.95633740      20.00000000
C      -12.30000000      32.66647823      20.00000000
C      -14.76000000      34.08675989      20.00000000
C      -13.53000000      34.79690072      20.00000000
C      -15.99000000      36.21718239      20.00000000
C      -14.76000000      36.92732322      20.00000000
C      -17.22000000      38.34760488      20.00000000
C      -15.99000000      39.05774571      20.00000000
C      -18.45000000      40.47802737      20.00000000
C      -17.22000000      41.18816820      20.00000000
C      -19.68000000      42.60844987      20.00000000
C      -18.45000000      43.31859070      20.00000000
C      -20.91000000      44.73887236      20.00000000
C      -19.68000000      45.44901319      20.00000000
C      -22.14000000      46.86929485      20.00000000
C      -20.91000000      47.57943568      20.00000000
C      -23.37000000      48.99971735      20.00000000
C      -22.14000000      49.70985818      20.00000000
C      -24.60000000      51.13013984      20.00000000
C      -23.37000000      51.84028067      20.00000000
C        7.38000000       0.00000000      20.00000000
C        8.61000000       0.71014083      20.00000000
C        6.15000000       2.13042249      20.00000000
C        7.38000000       2.84056332      20.00000000
C        4.92000000       4.26084499      20.00000000
C        6.15000000       4.97098582      20.00000000
C        3.69000000       6.39126748      20.00000000
C        4.92000000       7.10140831      20.00000000
C        2.46000000       8.52168997      20.00000000
C        3.69000000       9.23183080      20.00000000
C        1.23000000      10.65211247      20.00000000
C        2.46000000      11.36225330      20.00000000
C        0.00000000      12.78253496      20.00000000
C        1.23000000      13.49267579      20.00000000
C       -1.23000000      14.91295745      20.00000000
C        0.00000000      15.62309828      20.00000000
C       -2.46000000      17.04337995      20.00000000
C       -1.23000000      17.75352078      20.00000000
C       -3.69000000      19.17380244      20.00000000
C       -2.46000000      19.88394327      20.00000000
C       -4.92000000      21.30422493      20.00000000
C       -3.69000000      22.01436576      20.00000000
C       -6.15000000      23.43464743      20.00000000
C       -4.92000000      24.14478826      20.00000000
C       -7.38000000      25.56506992      20.00000000
C       -6.15000000      26.27521075      20.00000000
C       -8.61000000      27.69549241      20.00000000
C       -7.38000000      28.40563324      20.00000000
C       -9.84000000      29.82591491      20.00000000
C       -8.61000000      30.53605574      20.00000000
C      -11.07000000      31.95633740      20.00000000
C       -9.84000000      32.66647823      20.00000000
C      -12.30000000      34.08675989      20.00000000
C      -11.07000000      34.79690072      20.00000000
C      -13.53000000      36.21718239      20.00000000
C      -12.30000000      36.92732322      20.00000000
C      -14.76000000      38.34760488      20.00000000
C      -13.53000000      39.05774571      20.00000000
C      -15.99000000      40.47802737      20.00000000
C      -14.76000000      41.18816820      20.00000000
C      -17.22000000      42.60844987      20.00000000
C      -15.99000000      43.31859070      20.00000000
C      -18.45000000      44.73887236      20.00000000
C      -17.22000000      45.44901319      20.00000000
C      -19.68000000      46.86929485      20.00000000
C      -18.45000000      47.57943568      20.00000000
C      -20.91000000      48.99971735      20.00000000
C      -19.68000000      49.70985818      20.00000000
C      -22.14000000      51.13013984      20.00000000
C      -20.91000000      51.84028067      20.00000000
C        9.84000000       0.00000000      20.00000000
C       11.07000000       0.71014083      20.00000000
C        8.61000000       2.13042249      20.00000000
C        9.84000000       2.84056332      20.00000000
C        7.38000000       4.26084499      20.00000000
C        8.61000000       4.97098582      20.00000000
C        6.15000000       6.39126748      20.00000000
C        7.38000000       7.10140831      20.00000000
C        4.92000000       8.52168997      20.00000000
C        6.15000000       9.23183080      20.00000000
C        3.69000000      10.65211247      20.00000000
C        4.92000000      11.36225330      20.00000000
C        2.46000000      12.78253496      20.00000000
C        3.69000000      13.49267579      20.00000000
C        1.23000000      14.91295745      20.00000000
C        2.46000000      15.62309828      20.00000000
C        0.00000000      17.04337995      20.00000000
C        1.23000000      17.75352078      20.00000000
C       -1.23000000      19.17380244      20.00000000
C       -0.00000000      19.88394327      20.00000000
C       -2.46000000      21.30422493      20.00000000
C       -1.23000000      22.01436576      20.00000000
C       -3.69000000      23.43464743      20.00000000
C       -2.46000000      24.14478826      20.00000000
C       -4.92000000      25.56506992      20.00000000
C       -3.69000000      26.27521075      20.00000000
C       -6.15000000      27.69549241      20.00000000
C       -4.92000000      28.40563324      20.00000000
C       -7.38000000      29.82591491      20.00000000
C       -6.15000000      30.53605574      20.00000000
C       -8.61000000      31.95633740      20.00000000
C       -7.38000000      32.66647823      20.00000000
C       -9.84000000      34.08675989      20.00000000
C       -8.61000000      34.79690072      20.00000000
C      -11.07000000      36.21718239      20.00000000
C       -9.84000000      36.92732322      20.00000000
C      -12.30000000      38.34760488      20.00000000
C      -11.07000000      39.05774571      20.00000000
C      -13.53000000      40.47802737      20.00000000
C      -12.30000000      41.18816820      20.00000000
C      -14.76000000      42.60844987      20.00000000
C      -13.53000000      43.31859070      20.00000000
C      -15.99000000      44.73887236      20.00000000
C      -14.76000000      45.44901319      20.00000000
C      -17.22000000      46.86929485      20.00000000
C      -15.99000000      47.57943568      20.00000000
C      -18.45000000      48.99971735      20.00000000
C      -17.22000000      49.70985818      20.00000000
C      -19.68000000      51.13013984      20.00000000
C      -18.45000000      51.84028067      20.00000000
C       12.30000000       0.00000000      20.00000000
C       13.53000000       0.71014083      20.00000000
C       11.07000000       2.13042249      20.00000000
C       12.30000000       2.84056332      20.00000000
C        9.84000000       4.26084499      20.00000000
C       11.07000000       4.97098582      20.00000000
C        8.61000000       6.39126748      20.00000000
C        9.84000000       7.10140831      20.00000000
C        7.38000000       8.52168997      20.00000000
C        8.61000000       9.23183080      20.00000000
C        6.15000000      10.65211247      20.00000000
C        7.38000000      11.36225330      20.00000000
C        4.92000000      12.78253496      20.00000000
C        6.15000000      13.49267579      20.00000000
C        3.69000000      14.91295745      20.00000000
C        4.92000000      15.62309828      20.00000000
C        2.46000000      17.04337995      20.00000000
C        3.69000000      17.75352078      20.00000000
C        1.23000000      19.17380244      20.00000000
C        2.46000000      19.88394327      20.00000000
C        0.00000000      21.30422493      20.00000000
C        1.23000000      22.01436576      20.00000000
C       -1.23000000      23.43464743      20.00000000
C        0.00000000      24.14478826      20.00000000
C       -2.46000000      25.56506992      20.00000000
C       -1.23000000      26.27521075      20.00000000
C       -3.69000000      27.69549241      20.00000000
C       -2.46000000      28.40563324      20.00000000
C       -4.92000000      29.82591491      20.00000000
C       -3.69000000      30.53605574      20.00000000
C       -6.15000000      31.95633740      20.00000000
C       -4.92000000      32.66647823      20.00000000
C       -7.38000000      34.08675989      20.00000000
C       -6.15000000      34.79690072      20.00000000
C       -8.61000000      36.21718239      20.00000000
C       -7.38000000      36.92732322      20.00000000
C       -9.84000000      38.34760488      20.00000000
C       -8.61000000      39.05774571      20.00000000
C      -11.07000000      40.47802737      20.00000000
C       -9.84000000      41.18816820      20.00000000
C      -12.30000000      42.60844987      20.00000000
C      -11.07000000      43.31859070      20.00000000
C      -13.53000000      44.73887236      20.00000000
C      -12.30000000      45.44901319      20.00000000
C      -14.76000000      46.86929485      20.00000000
C      -13.53000000      47.57943568      20.00000000
C      -15.99000000      48.99971735      20.00000000
C      -14.76000000      49.70985818      20.00000000
C      -17.22000000      51.13013984      20.00000000
C      -15.99000000      51.84028067      20.00000000
C       14.76000000       0.00000000      20.00000000
C       15.99000000       0.71014083      20.00000000
C       13.53000000       2.13042249      20.00000000
C       14.76000000       2.84056332      20.00000000
C       12.30000000       4.26084499      20.00000000
C       13.53000000       4.97098582      20.00000000
C       11.07000000       6.39126748      20.00000000
C       12.30000000       7.10140831      20.00000000
C        9.84000000       8.52168997      20.00000000
C       11.07000000       9.23183080      20.00000000
C        8.61000000      10.65211247      20.00000000
C        9.84000000      11.36225330      20.00000000
C        7.38000000      12.78253496      20.00000000
C        8.61000000      13.49267579      20.00000000
C        6.15000000      14.91295745      20.00000000
C        7.38000000      15.62309828      20.00000000
C        4.92000000      17.04337995      20.00000000
C        6.15000000      17.75352078      20.00000000
C        3.69000000      19.17380244      20.00000000
C        4.92000000      19.88394327      20.00000000
C        2.46000000      21.30422493      20.00000000
C        3.69000000      22.01436576      20.00000000
C        1.23000000      23.43464743      20.00000000
C        2.46000000      24.14478826      20.00000000
C        0.00000000      25.56506992      20.00000000
C        1.23000000      26.27521075      20.00000000
C       -1.23000000      27.69549241      20.00000000
C       -0.00000000      28.40563324      20.00000000
C       -2.46000000      29.82591491      20.00000000
C       -1.23000000      30.53605574      20.00000000
C       -3.69000000      31.95633740      20.00000000
C       -2.46000000      32.66647823      20.00000000
C       -4.92000000      34.08675989      20.00000000
C       -3.69000000      34.79690072      20.00000000
C       -6.15000000      36.21718239      20.00000000
C       -4.92000000      36.92732322      20.00000000
C       -7.38000000      38.34760488      20.00000000
C       -6.15000000      39.05774571      20.00000000
C       -8.61000000      40.47802737      20.00000000
C       -7.38000000      41.18816820      20.00000000
C       -9.84000000      42.60844987      20.00000000
C       -8.61000000      43.31859070      20.00000000
C      -11.07000000      44.73887236      20.00000000
C       -9.84000000      45.44901319      20.00000000
C      -12.30000000      46.86929485      20.00000000
C      -11.07000000      47.57943568      20.00000000
C      -13.53000000      48.99971735      20.00000000
C      -12.30000000      49.70985818      20.00000000
C      -14.76000000      51.13013984      20.00000000
C      -13.53000000      51.84028067      20.00000000
C       17.22000000       0.00000000      20.00000000
C       18.45000000       0.71014083      20.00000000
C       15.99000000       2.13042249      20.00000000
C       17.22000000       2.84056332      20.00000000
C       14.76000000       4.26084499      20.00000000
C       15.99000000       4.97098582      20.00000000
C       13.53000000       6.39126748      20.00000000
C       14.76000000       7.10140831      20.00000000
C       12.30000000       8.52168997      20.00000000
C       13.53000000       9.23183080      20.00000000
C       11.07000000      10.65211247      20.00000000
C       12.30000000      11.36225330      20.00000000
C        9.84000000      12.78253496      20.00000000
C       11.07000000      13.49267579      20.00000000
C        8.61000000      14.91295745      20.00000000
C        9.84000000      15.62309828      20.00000000
C        7.38000000      17.04337995      20.00000000
C        8.61000000      17.75352078      20.00000000
C        6.15000000      19.17380244      20.00000000
C        7.38000000      19.88394327      20.00000000
C        4.92000000      21.30422493      20.00000000
C        6.15000000      22.01436576      20.00000000
C        3.69000000      23.43464743      20.00000000
C        4.92000000      24.14478826      20.00000000
C        2.46000000      25.56506992      20.00000000
C        3.69000000      26.27521075      20.00000000
C        1.23000000      27.69549241      20.00000000
C        2.46000000      28.40563324      20.00000000
C        0.00000000      29.82591491      20.00000000
C        1.23000000      30.53605574      20.00000000
C       -1.23000000      31.95633740      20.00000000
C       -0.00000000      32.66647823      20.00000000
C       -2.46000000      34.08675989      20.00000000
C       -1.23000000      34.79690072      20.00000000
C       -3.69000000      36.21718239      20.00000000
C       -2.46000000      36.92732322      20.00000000
C       -4.92000000      38.34760488      20.00000000
C       -3.69000000      39.05774571      20.00000000
C       -6.15000000      40.47802737      20.00000000
C       -4.92000000      41.18816820      20.00000000
C       -7.38000000      42.60844987      20.00000000
C       -6.15000000      43.31859070      20.00000000
C       -8.61000000      44.73887236      20.00000000
C       -7.38000000      45.44901319      20.00000000
C       -9.84000000      46.86929485      20.00000000
C       -8.61000000      47.57943568      20.00000000
C      -11.07000000      48.99971735      20.00000000
C       -9.84000000      49.70985818      20.00000000
C      -12.30000000      51.13013984      20.00000000
C      -11.07000000      51.84028067      20.00000000
C       19.68000000       0.00000000      20.00000000
C       20.91000000       0.71014083      20.00000000
C       18.45000000       2.13042249      20.00000000
C       19.68000000       2.84056332      20.00000000
C       17.22000000       4.26084499      20.00000000
C       18.45000000       4.97098582      20.00000000
C       15.99000000       6.39126748      20.00000000
C       17.22000000       7.10140831      20.00000000
C       14.76000000       8.52168997      20.00000000
C       15.99000000       9.23183080      20.00000000
C       13.53000000      10.65211247      20.00000000
C       14.76000000      11.36225330      20.00000000
C       12.30000000      12.78253496      20.00000000
C       13.53000000      13.49267579      20.00000000
C       11.07000000      14.91295745      20.00000000
C       12.30000000      15.62309828      20.00000000
C        9.84000000      17.04337995      20.00000000
C       11.07000000      17.75352078      20.00000000
C        8.61000000      19.17380244      20.00000000
C        9.84000000      19.88394327      20.00000000
C        7.38000000      21.30422493      20.00000000
C        8.61000000      22.01436576      20.00000000
C        6.15000000      23.43464743      20.00000000
C        7.38000000      24.14478826      20.00000000
C        4.92000000      25.56506992      20.00000000
C        6.15000000      26.27521075      20.00000000
C        3.69000000      27.69549241      20.00000000
C        4.92000000      28.40563324      20.00000000
C        2.46000000      29.82591491      20.00000000
C        3.69000000      30.53605574      20.00000000
C        1.23000000      31.95633740      20.00000000
C        2.46000000      32.66647823      20.00000000
C        0.00000000      34.08675989      20.00000000
C        1.23000000      34.79690072      20.00000000
C       -1.23000000      36.21718239      20.00000000
C       -0.00000000      36.92732322      20.00000000
C       -2.46000000      38.34760488      20.00000000
C       -1.23000000      39.05774571      20.00000000
C       -3.69000000      40.47802737      20.00000000
C       -2.46000000      41.18816820      20.00000000
C       -4.92000000      42.60844987      20.00000000
C       -3.69000000      43.31859070      20.00000000
C       -6.15000000      44.73887236      20.00000000
C       -4.92000000      45.44901319      20.00000000
C       -7.38000000      46.86929485      20.00000000
C       -6.15000000      47.57943568      20.00000000
C       -8.61000000      48.99971735      20.00000000
C       -7.38000000      49.70985818      20.00000000
C       -9.84000000      51.13013984      20.00000000
C       -8.61000000      51.84028067      20.00000000
C       22.14000000       0.00000000      20.00000000
C       23.37000000       0.71014083      20.00000000
C       20.91000000       2.13042249      20.00000000
C       22.14000000       2.84056332      20.00000000
C       19.68000000       4.26084499      20.00000000
C       20.91000000       4.97098582      20.00000000
C       18.45000000       6.39126748      20.00000000
C       19.68000000       7.10140831      20.00000000
C       17.22000000       8.52168997      20.00000000
C       18.45000000       9.23183080      20.00000000
C       15.99000000      10.65211247      20.00000000
C       17.22000000      11.36225330      20.00000000
C       14.76000000      12.78253496      20.00000000
C       15.99000000      13.49267579      20.00000000
C       13.53000000      14.91295745      20.00000000
C       14.76000000      15.62309828      20.00000000
C       12.30000000      17.04337995      20.00000000
C       13.53000000      17.75352078      20.00000000
C       11.07000000      19.17380244      20.00000000
C       12.30000000      19.88394327      20.00000000
C        9.84000000      21.30422493      20.00000000
C       11.07000000      22.01436576      20.00000000
C        8.61000000      23.43464743      20.00000000
C        9.84000000      24.14478826      20.00000000
C        7.38000000      25.56506992      20.00000000
C        8.61000000      26.27521075      20.00000000
C        6.15000000      27.69549241      20.00000000
C        7.38000000      28.40563324      20.00000000
C        4.92000000      29.82591491      20.00000000
C        6.15000000      30.53605574      20.00000000
C        3.69000000      31.95633740      20.00000000
C        4.92000000      32.66647823      20.00000000
C        2.46000000      34.08675989      20.00000000
C        3.69000000      34.79690072      20.00000000
C        1.23000000      36.21718239      20.00000000
C        2.46000000      36.92732322      20.00000000
C        0.00000000      38.34760488      20.00000000
C        1.23000000      39.05774571      20.00000000
C       -1.23000000      40.47802737      20.00000000
C       -0.00000000      41.18816820      20.00000000
C       -2.46000000      42.60844987      20.00000000
C       -1.23000000      43.31859070      20.00000000
C       -3.69000000      44.73887236      20.00000000
C       -2.46000000      45.44901319      20.00000000
C       -4.92000000      46.86929485      20.00000000
C       -3.69000000      47.57943568      20.00000000
C       -6.15000000      48.99971735      20.00000000
C       -4.92000000      49.70985818      20.00000000
C       -7.38000000      51.13013984      20.00000000
C       -6.15000000      51.84028067      20.00000000
C       24.60000000       0.00000000      20.00000000
C       25.83000000       0.71014083      20.00000000
C       23.37000000       2.13042249      20.00000000
C       24.60000000       2.84056332      20.00000000
C       22.14000000       4.26084499      20.00000000
C       23.37000000       4.97098582      20.00000000
C       20.91000000       6.39126748      20.00000000
C       22.14000000       7.10140831      20.00000000
C       19.68000000       8.52168997      20.00000000
C       20.91000000       9.23183080      20.00000000
C       18.45000000      10.65211247      20.00000000
C       19.68000000      11.36225330      20.00000000
C       17.22000000      12.78253496      20.00000000
C       18.45000000      13.49267579      20.00000000
C       15.99000000      14.91295745      20.00000000
C       17.22000000      15.62309828      20.00000000
C       14.76000000      17.04337995      20.00000000
C       15.99000000      17.75352078      20.00000000
C       13.53000000      19.17380244      20.00000000
C       14.76000000      19.88394327      20.00000000
C       12.30000000      21.30422493      20.00000000
C       13.53000000      22.01436576      20.00000000
C       11.07000000      23.43464743      20.00000000
C       12.30000000      24.14478826      20.00000000
C        9.84000000      25.56506992      20.00000000
C       11.07000000      26.27521075      20.00000000
C        8.61000000      27.69549241      20.00000000
C        9.84000000      28.40563324      20.00000000
C        7.38000000      29.82591491      20.00000000
C        8.61000000      30.53605574      20.00000000
C        6.15000000      31.95633740      20.00000000
C        7.38000000      32.66647823      20.00000000
C        4.92000000      34.08675989      20.00000000
C        6.15000000      34.79690072      20.00000000
C        3.69000000      36.21718239      20.00000000
C        4.92000000      36.92732322      20.00000000
C        2.46000000      38.34760488      20.00000000
C        3.69000000      39.05774571      20.00000000
C        1.23000000      40.47802737      20.00000000
C        2.46000000      41.18816820      20.00000000
C        0.00000000      42.60844987      20.00000000
C        1.23000000      43.31859070      20.00000000
C       -1.23000000      44.73887236      20.00000000
C        0.00000000      45.44901319      20.00000000
C       -2.46000000      46.86929485      20.00000000
C       -1.23000000      47.57943568      20.00000000
C       -3.69000000      48.99971735      20.00000000
C       -2.46000000      49.70985818      20.00000000
C       -4.92000000      51.13013984      20.00000000
C       -3.69000000      51.84028067      20.00000000
C       27.06000000       0.00000000      20.00000000
C       28.29000000       0.71014083      20.00000000
C       25.83000000       2.13042249      20.00000000
C       27.06000000       2.84056332      20.00000000
C       24.60000000       4.26084499      20.00000000
C       25.83000000       4.97098582      20.00000000
C       23.37000000       6.39126748      20.00000000
C       24.60000000       7.10140831      20.00000000
C       22.14000000       8.52168997      20.00000000
C       23.37000000       9.23183080      20.00000000
C       20.91000000      10.65211247      20.00000000
C       22.14000000      11.36225330      20.00000000
C       19.68000000      12.78253496      20.00000000
C       20.91000000      13.49267579      20.00000000
C       18.45000000      14.91295745      20.00000000
C       19.68000000      15.62309828      20.00000000
C       17.22000000      17.04337995      20.00000000
C       18.45000000      17.75352078      20.00000000
C       15.99000000      19.17380244      20.00000000
C       17.22000000      19.88394327      20.00000000
C       14.76000000      21.30422493      20.00000000
C       15.99000000      22.01436576      20.00000000
C       13.53000000      23.43464743      20.00000000
C       14.76000000      24.14478826      20.00000000
C       12.30000000      25.56506992      20.00000000
C       13.53000000      26.27521075      20.00000000
C       11.07000000      27.69549241      20.00000000
C       12.30000000      28.40563324      20.00000000
C        9.84000000      29.82591491      20.00000000
C       11.07000000      30.53605574      20.00000000
C        8.61000000      31.95633740      20.00000000
C        9.84000000      32.66647823      20.00000000
C        7.38000000      34.08675989      20.00000000
C        8.61000000      34.79690072      20.00000000
C        6.15000000      36.21718239      20.00000000
C        7.38000000      36.92732322      20.00000000
C        4.92000000      38.34760488      20.00000000
C        6.15000000      39.05774571      20.00000000
C        3.69000000      40.47802737      20.00000000
C        4.92000000      41.18816820      20.00000000
C        2.46000000      42.60844987      20.00000000
C        3.69000000      43.31859070      20.00000000
C        1.23000000      44.73887236      20.00000000
C        2.46000000      45.44901319      20.00000000
C        0.00000000      46.86929485      20.00000000
C        1.23000000      47.57943568      20.00000000
C       -1.23000000      48.99971735      20.00000000
C       -0.00000000      49.70985818      20.00000000
C       -2.46000000      51.13013984      20.00000000
C       -1.23000000      51.84028067      20.00000000
C       29.52000000       0.00000000      20.00000000
C       30.75000000       0.71014083      20.00000000
C       28.29000000       2.13042249      20.00000000
C       29.52000000       2.84056332      20.00000000
C       27.06000000       4.26084499      20.00000000
C       28.29000000       4.97098582      20.00000000
C       25.83000000       6.39126748      20.00000000
C       27.06000000       7.10140831      20.00000000
C       24.60000000       8.52168997      20.00000000
C       25.83000000       9.23183080      20.00000000
C       23.37000000      10.65211247      20.00000000
C       24.60000000      11.36225330      20.00000000
C       22.14000000      12.78253496      20.00000000
C       23.37000000      13.49267579      20.00000000
C       20.91000000      14.91295745      20.00000000
C       22.14000000      15.62309828      20.00000000
C       19.68000000      17.04337995      20.00000000
C       20.91000000      17.75352078      20.00000000
C       18.45000000      19.17380244      20.00000000
C       19.68000000      19.88394327      20.00000000
C       17.22000000      21.30422493      20.00000000
C       18.45000000      22.01436576      20.00000000
C       15.99000000      23.43464743      20.00000000
C       17.22000000      24.14478826      20.00000000
C       14.76000000      25.56506992      20.00000000
C       15.99000000      26.27521075      20.00000000
C       13.53000000      27.69549241      20.00000000
C       14.76000000      28.40563324      20.00000000
C       12.30000000      29.82591491      20.00000000
C       13.53000000      30.53605574      20.00000000
C       11.07000000      31.95633740      20.00000000
C       12.30000000      32.66647823      20.00000000
C        9.84000000      34.08675989      20.00000000
C       11.07000000      34.79690072      20.00000000
C        8.61000000      36.21718239      20.00000000
C        9.84000000      36.92732322      20.00000000
C        7.38000000      38.34760488      20.00000000
C        8.61000000      39.05774571      20.00000000
C        6.15000000      40.47802737      20.00000000
C        7.38000000      41.18816820      20.00000000
C        4.92000000      42.60844987      20.00000000
C        6.15000000      43.31859070      20.00000000
C        3.69000000      44.73887236      20.00000000
C        4.92000000      45.44901319      20.00000000
C        2.46000000      46.86929485      20.00000000
C        3.69000000      47.57943568      20.00000000
C        1.23000000      48.99971735      20.00000000
C        2.46000000      49.70985818      20.00000000
C        0.00000000      51.13013984      20.00000000
C        1.23000000      51.84028067      20.00000000
C       31.98000000       0.00000000      20.00000000
C       33.21000000       0.71014083      20.00000000
C       30.75000000       2.13042249      20.00000000
C       31.98000000       2.84056332      20.00000000
C       29.52000000       4.26084499      20.00000000
C       30.75000000       4.97098582      20.00000000
C       28.29000000       6.39126748      20.00000000
C       29.52000000       7.10140831      20.00000000
C       27.06000000       8.52168997      20.00000000
C       28.29000000       9.23183080      20.00000000
C       25.83000000      10.65211247      20.00000000
C       27.06000000      11.36225330      20.00000000
C       24.60000000      12.78253496      20.00000000
C       25.83000000      13.49267579      20.00000000
C       23.37000000      14.91295745      20.00000000
C       24.60000000      15.62309828      20.00000000
C       22.14000000      17.04337995      20.00000000
C       23.37000000      17.75352078      20.00000000
C       20.91000000      19.17380244      20.00000000
C       22.14000000      19.88394327      20.00000000
C       19.68000000      21.30422493      20.00000000
C       20.91000000      22.01436576      20.00000000
C       18.45000000      23.43464743      20.00000000
C       19.68000000      24.14478826      20.00000000
C       17.22000000      25.56506992      20.00000000
C       18.45000000      26.27521075      20.00000000
C       15.99000000      27.69549241      20.00000000
C       17.22000000      28.40563324      20.00000000
C       14.76000000      29.82591491      20.00000000
C       15.99000000      30.53605574      20.00000000
C       13.53000000      31.95633740      20.00000000
C       14.76000000      32.66647823      20.00000000
C       12.30000000      34.08675989      20.00000000
C       13.53000000      34.79690072      20.00000000
C       11.07000000      36.21718239      20.00000000
C       12.30000000      36.92732322      20.00000000
C        9.84000000      38.34760488      20.00000000
C       11.07000000      39.05774571      20.00000000
C        8.61000000      40.47802737      20.00000000
C        9.84000000      41.18816820      20.00000000
C        7.38000000      42.60844987      20.00000000
C        8.61000000      43.31859070      20.00000000
C        6.15000000      44.73887236      20.00000000
C        7.38000000      45.44901319      20.00000000
C        4.92000000      46.86929485      20.00000000
C        6.15000000      47.57943568      20.00000000
C        3.69000000      48.99971735      20.00000000
C        4.92000000      49.70985818      20.00000000
C        2.46000000      51.13013984      20.00000000
C        3.69000000      51.84028067      20.00000000
C       34.44000000       0.00000000      20.00000000
C       35.67000000       0.71014083      20.00000000
C       33.21000000       2.13042249      20.00000000
C       34.44000000       2.84056332      20.00000000
C       31.98000000       4.26084499      20.00000000
C       33.21000000       4.97098582      20.00000000
C       30.75000000       6.39126748      20.00000000
C       31.98000000       7.10140831      20.00000000
C       29.52000000       8.52168997      20.00000000
C       30.75000000       9.23183080      20.00000000
C       28.29000000      10.65211247      20.00000000
C       29.52000000      11.36225330      20.00000000
C       27.06000000      12.78253496      20.00000000
C       28.29000000      13.49267579      20.00000000
C       25.83000000      14.91295745      20.00000000
C       27.06000000      15.62309828      20.00000000
C       24.60000000      17.04337995      20.00000000
C       25.83000000      17.75352078      20.00000000
C       23.37000000      19.17380244      20.00000000
C       24.60000000      19.88394327      20.00000000
C       22.14000000      21.30422493      20.00000000
C       23.37000000      22.01436576      20.00000000
C       20.91000000      23.43464743      20.00000000
C       22.14000000      24.14478826      20.00000000
C       19.68000000      25.56506992      20.00000000
C       20.91000000      26.27521075      20.00000000
C       18.45000000      27.69549241      20.00000000
C       19.68000000      28.40563324      20.00000000
C       17.22000000      29.82591491      20.00000000
C       18.45000000      30.53605574      20.00000000
C       15.99000000      31.95633740      20.00000000
C       17.22000000      32.66647823      20.00000000
C       14.76000000      34.08675989      20.00000000
C       15.99000000      34.79690072      20.00000000
C       13.53000000      36.21718239      20.00000000
C       14.76000000      36.92732322      20.00000000
C       12.30000000      38.34760488      20.00000000
C       13.53000000      39.05774571      20.00000000
C       11.07000000      40.47802737      20.00000000
C       12.30000000      41.18816820      20.00000000
C        9.84000000      42.60844987      20.00000000
C       11.07000000      43.31859070      20.00000000
C        8.61000000      44.73887236      20.00000000
C        9.84000000      45.44901319      20.00000000
C        7.38000000      46.86929485      20.00000000
C        8.61000000      47.57943568      20.00000000
C        6.15000000      48.99971735      20.00000000
C        7.38000000      49.70985818      20.00000000
C        4.92000000      51.13013984      20.00000000
C        6.15000000      51.84028067      20.00000000
C       36.90000000       0.00000000      20.00000000
C       38.13000000       0.71014083      20.00000000
C       35.67000000       2.13042249      20.00000000
C       36.90000000       2.84056332      20.00000000
C       34.44000000       4.26084499      20.00000000
C       35.67000000       4.97098582      20.00000000
C       33.21000000       6.39126748      20.00000000
C       34.44000000       7.10140831      20.00000000
C       31.98000000       8.52168997      20.00000000
C       33.21000000       9.23183080      20.00000000
C       30.75000000      10.65211247      20.00000000
C       31.98000000      11.36225330      20.00000000
C       29.52000000      12.78253496      20.00000000
C       30.75000000      13.49267579      20.00000000
C       28.29000000      14.91295745      20.00000000
C       29.52000000      15.62309828      20.00000000
C       27.06000000      17.04337995      20.00000000
C       28.29000000      17.75352078      20.00000000
C       25.83000000      19.17380244      20.00000000
C       27.06000000      19.88394327      20.00000000
C       24.60000000      21.30422493      20.00000000
C       25.83000000      22.01436576      20.00000000
C       23.37000000      23.43464743      20.00000000
C       24.60000000      24.14478826      20.00000000
C       22.14000000      25.56506992      20.00000000
C       23.37000000      26.27521075      20.00000000
C       20.91000000      27.69549241      20.00000000
C       22.14000000      28.40563324      20.00000000
C       19.68000000      29.82591491      20.00000000
C       20.91000000      30.53605574      20.00000000
C       18.45000000      31.95633740      20.00000000
C       19.68000000      32.66647823      20.00000000
C       17.22000000      34.08675989      20.00000000
C       18.45000000      34.79690072      20.00000000
C       15.99000000      36.21718239      20.00000000
C       17.22000000      36.92732322      20.00000000
C       14.76000000      38.34760488      20.00000000
C       15.99000000      39.05774571      20.00000000
C       13.53000000      40.47802737      20.00000000
C       14.76000000      41.18816820      20.00000000
C       12.30000000      42.60844987      20.00000000
C       13.53000000      43.31859070      20.00000000
C       11.07000000      44.73887236      20.00000000
C       12.30000000      45.44901319      20.00000000
C        9.84000000      46.86929485      20.00000000
C       11.07000000      47.57943568      20.00000000
C        8.61000000      48.99971735      20.00000000
C        9.84000000      49.70985818      20.00000000
C        7.38000000      51.13013984      20.00000000
C        8.61000000      51.84028067      20.00000000
C       39.36000000       0.00000000      20.00000000
C       40.59000000       0.71014083      20.00000000
C       38.13000000       2.13042249      20.00000000
C       39.36000000       2.84056332      20.00000000
C       36.90000000       4.26084499      20.00000000
C       38.13000000       4.97098582      20.00000000
C       35.67000000       6.39126748      20.00000000
C       36.90000000       7.10140831      20.00000000
C       34.44000000       8.52168997      20.00000000
C       35.67000000       9.23183080      20.00000000
C       33.21000000      10.65211247      20.00000000
C       34.44000000      11.36225330      20.00000000
C       31.98000000      12.78253496      20.00000000
C       33.21000000      13.49267579      20.00000000
C       30.75000000      14.91295745      20.00000000
C       31.98000000      15.62309828      20.00000000
C       29.52000000      17.04337995      20.00000000
C       30.75000000      17.75352078      20.00000000
C       28.29000000      19.17380244      20.00000000
C       29.52000000      19.88394327      20.00000000
C       27.06000000      21.30422493      20.00000000
C       28.29000000      22.01436576      20.00000000
C       25.83000000      23.43464743      20.00000000
C       27.06000000      24.14478826      20.00000000
C       24.60000000      25.56506992      20.00000000
C       25.83000000      26.27521075      20.00000000
C       23.37000000      27.69549241      20.00000000
C       24.60000000      28.40563324      20.00000000
C       22.14000000      29.82591491      20.00000000
C       23.37000000      30.53605574      20.00000000
C       20.91000000      31.95633740      20.00000000
C       22.14000000      32.66647823      20.00000000
C       19.68000000      34.08675989      20.00000000
C       20.91000000      34.79690072      20.00000000
C       18.45000000      36.21718239      20.00000000
C       19.68000000      36.92732322      20.00000000
C       17.22000000      38.34760488      20.00000000
C       18.45000000      39.05774571      20.00000000
C       15.99000000      40.47802737      20.00000000
C       17.22000000      41.18816820      20.00000000
C       14.76000000      42.60844987      20.00000000
C       15.99000000      43.31859070      20.00000000
C       13.53000000      44.73887236      20.00000000
C       14.76000000      45.44901319      20.00000000
C       12.30000000      46.86929485      20.00000000
C       13.53000000      47.57943568      20.00000000
C       11.07000000      48.99971735      20.00000000
C       12.30000000      49.70985818      20.00000000
C        9.84000000      51.13013984      20.00000000
C       11.07000000      51.84028067      20.00000000
C       41.82000000       0.00000000      20.00000000
C       43.05000000       0.71014083      20.00000000
C       40.59000000       2.13042249      20.00000000
C       41.82000000       2.84056332      20.00000000
C       39.36000000       4.26084499      20.00000000
C       40.59000000       4.97098582      20.00000000
C       38.13000000       6.39126748      20.00000000
C       39.36000000       7.10140831      20.00000000
C       36.90000000       8.52168997      20.00000000
C       38.13000000       9.23183080      20.00000000
C       35.67000000      10.65211247      20.00000000
C       36.90000000      11.36225330      20.00000000
C       34.44000000      12.78253496      20.00000000
C       35.67000000      13.49267579      20.00000000
C       33.21000000      14.91295745      20.00000000
C       34.44000000      15.62309828      20.00000000
C       31.98000000      17.04337995      20.00000000
C       33.21000000      17.75352078      20.00000000
C       30.75000000      19.17380244      20.00000000
C       31.98000000      19.88394327      20.00000000
C       29.52000000      21.30422493      20.00000000
C       30.75000000      22.01436576      20.00000000
C       28.29000000      23.43464743      20.00000000
C       29.52000000      24.14478826      20.00000000
C       27.06000000      25.56506992      20.00000000
C       28.29000000      26.27521075      20.00000000
C       25.83000000      27.69549241      20.00000000
C       27.06000000      28.40563324      20.00000000
C       24.60000000      29.82591491      20.00000000
C       25.83000000      30.53605574      20.00000000
C       23.37000000      31.95633740      20.00000000
C       24.60000000      32.66647823      20.00000000
C       22.14000000      34.08675989      20.00000000
C       23.37000000      34.79690072      20.00000000
C       20.91000000      36.21718239      20.00000000
C       22.14000000      36.92732322      20.00000000
C       19.68000000      38.34760488      20.00000000
C       20.91000000      39.05774571      20.00000000
C       18.45000000      40.47802737      20.00000000
C       19.68000000      41.18816820      20.00000000
C       17.22000000      42.60844987      20.00000000
C       18.45000000      43.31859070      20.00000000
C       15.99000000      44.73887236      20.00000000
C       17.22000000      45.44901319      20.00000000
C       14.76000000      46.86929485      20.00000000
C       15.99000000      47.57943568      20.00000000
C       13.53000000      48.99971735      20.00000000
C       14.76000000      49.70985818      20.00000000
C       12.30000000      51.13013984      20.00000000
C       13.53000000      51.84028067      20.00000000
C       44.28000000       0.00000000      20.00000000
C       45.51000000       0.71014083      20.00000000
C       43.05000000       2.13042249      20.00000000
C       44.28000000       2.84056332      20.00000000
C       41.82000000       4.26084499      20.00000000
C       43.05000000       4.97098582      20.00000000
C       40.59000000       6.39126748      20.00000000
C       41.82000000       7.10140831      20.00000000
C       39.36000000       8.52168997      20.00000000
C       40.59000000       9.23183080      20.00000000
C       38.13000000      10.65211247      20.00000000
C       39.36000000      11.36225330      20.00000000
C       36.90000000      12.78253496      20.00000000
C       38.13000000      13.49267579      20.00000000
C       35.67000000      14.91295745      20.00000000
C       36.90000000      15.62309828      20.00000000
C       34.44000000      17.04337995      20.00000000
C       35.67000000      17.75352078      20.00000000
C       33.21000000      19.17380244      20.00000000
C       34.44000000      19.88394327      20.00000000
C       31.98000000      21.30422493      20.00000000
C       33.21000000      22.01436576      20.00000000
C       30.75000000      23.43464743      20.00000000
C       31.98000000      24.14478826      20.00000000
C       29.52000000      25.56506992      20.00000000
C       30.75000000      26.27521075      20.00000000
C       28.29000000      27.69549241      20.00000000
C       29.52000000      28.40563324      20.00000000
C       27.06000000      29.82591491      20.00000000
C       28.29000000      30.53605574      20.00000000
C       25.83000000      31.95633740      20.00000000
C       27.06000000      32.66647823      20.00000000
C       24.60000000      34.08675989      20.00000000
C       25.83000000      34.79690072      20.00000000
C       23.37000000      36.21718239      20.00000000
C       24.60000000      36.92732322      20.00000000
C       22.14000000      38.34760488      20.00000000
C       23.37000000      39.05774571      20.00000000
C       20.91000000      40.47802737      20.00000000
C       22.14000000      41.18816820      20.00000000
C       19.68000000      42.60844987      20.00000000
C       20.91000000      43.31859070      20.00000000
C       18.45000000      44.73887236      20.00000000
C       19.68000000      45.44901319      20.00000000
C       17.22000000      46.86929485      20.00000000
C       18.45000000      47.57943568      20.00000000
C       15.99000000      48.99971735      20.00000000
C       17.22000000      49.70985818      20.00000000
C       14.76000000      51.13013984      20.00000000
C       15.99000000      51.84028067      20.00000000
C       46.74000000       0.00000000      20.00000000
C       47.97000000       0.71014083      20.00000000
C       45.51000000       2.13042249      20.00000000
C       46.74000000       2.84056332      20.00000000
C       44.28000000       4.26084499      20.00000000
C       45.51000000       4.97098582      20.00000000
C       43.05000000       6.39126748      20.00000000
C       44.28000000       7.10140831      20.00000000
C       41.82000000       8.52168997      20.00000000
C       43.05000000       9.23183080      20.00000000
C       40.59000000      10.65211247      20.00000000
C       41.82000000      11.36225330      20.00000000
C       39.36000000      12.78253496      20.00000000
C       40.59000000      13.49267579      20.00000000
C       38.13000000      14.91295745      20.00000000
C       39.36000000      15.62309828      20.00000000
C       36.90000000      17.04337995      20.00000000
C       38.13000000      17.75352078      20.00000000
C       35.67000000      19.17380244      20.00000000
C       36.90000000      19.88394327      20.00000000
C       34.44000000      21.30422493      20.00000000
C       35.67000000      22.01436576      20.00000000
C       33.21000000      23.43464743      20.00000000
C       34.44000000      24.14478826      20.00000000
C       31.98000000      25.56506992      20.00000000
C       33.21000000      26.27521075      20.00000000
C       30.75000000      27.69549241      20.00000000
C       31.98000000      28.40563324      20.00000000
C       29.52000000      29.82591491      20.00000000
C       30.75000000      30.53605574      20.00000000
C       28.29000000      31.95633740      20.00000000
C       29.52000000      32.66647823      20.00000000
C       27.06000000      34.08675989      20.00000000
C       28.29000000      34.79690072      20.00000000
C       25.83000000      36.21718239      20.00000000
C       27.06000000      36.92732322      20.00000000
C       24.60000000      38.34760488      20.00000000
C       25.83000000      39.05774571      20.00000000
C       23.37000000      40.47802737      20.00000000
C       24.60000000      41.18816820      20.00000000
C       22.14000000      42.60844987      20.00000000
C       23.37000000      43.31859070      20.00000000
C       20.91000000      44.73887236      20.00000000
C       22.14000000      45.44901319      20.00000000
C       19.68000000      46.86929485      20.00000000
C       20.91000000      47.57943568      20.00000000
C       18.45000000      48.99971735      20.00000000
C       19.68000000      49.70985818      20.00000000
C       17.22000000      51.13013984      20.00000000
C       18.45000000      51.84028067      20.00000000
C       49.20000000       0.00000000      20.00000000
C       50.43000000       0.71014083      20.00000000
C       47.97000000       2.13042249      20.00000000
C       49.20000000       2.84056332      20.00000000
C       46.74000000       4.26084499      20.00000000
C       47.97000000       4.97098582      20.00000000
C       45.51000000       6.39126748      20.00000000
C       46.74000000       7.10140831      20.00000000
C       44.28000000       8.52168997      20.00000000
C       45.51000000       9.23183080      20.00000000
C       43.05000000      10.65211247      20.00000000
C       44.28000000      11.36225330      20.00000000
C       41.82000000      12.78253496      20.00000000
C       43.05000000      13.49267579      20.00000000
C       40.59000000      14.91295745      20.00000000
C       41.82000000      15.62309828      20.00000000
C       39.36000000      17.04337995      20.00000000
C       40.59000000      17.75352078      20.00000000
C       38.13000000      19.17380244      20.00000000
C       39.36000000      19.88394327      20.00000000
C       36.90000000      21.30422493      20.00000000
C       38.13000000      22.01436576      20.00000000
C       35.67000000      23.43464743      20.00000000
C       36.90000000      24.14478826      20.00000000
C       34.44000000      25.56506992      20.00000000
C       35.67000000      26.27521075      20.00000000
C       33.21000000      27.69549241      20.00000000
C       34.44000000      28.40563324      20.00000000
C       31.98000000      29.82591491      20.00000000
C       33.21000000      30.53605574      20.00000000
C       30.75000000      31.95633740      20.00000000
C       31.98000000      32.66647823      20.00000000
C       29.52000000      34.08675989      20.00000000
C       30.75000000      34.79690072      20.00000000
C       28.29000000      36.21718239      20.00000000
C       29.52000000      36.92732322      20.00000000
C       27.06000000      38.34760488      20.00000000
C       28.29000000      39.05774571      20.00000000
C       25.83000000      40.47802737      20.00000000
C       27.06000000      41.18816820      20.00000000
C       24.60000000      42.60844987      20.00000000
C       25.83000000      43.31859070      20.00000000
C       23.37000000      44.73887236      20.00000000
C       24.60000000      45.44901319      20.00000000
C       22.14000000      46.86929485      20.00000000
C       23.37000000      47.57943568      20.00000000
C       20.91000000      48.99971735      20.00000000
C       22.14000000      49.70985818      20.00000000
C       19.68000000      51.13013984      20.00000000
C       20.91000000      51.84028067      20.00000000
C       51.66000000       0.00000000      20.00000000
C       52.89000000       0.71014083      20.00000000
C       50.43000000       2.13042249      20.00000000
C       51.66000000       2.84056332      20.00000000
C       49.20000000       4.26084499      20.00000000
C       50.43000000       4.97098582      20.00000000
C       47.97000000       6.39126748      20.00000000
C       49.20000000       7.10140831      20.00000000
C       46.74000000       8.52168997      20.00000000
C       47.97000000       9.23183080      20.00000000
C       45.51000000      10.65211247      20.00000000
C       46.74000000      11.36225330      20.00000000
C       44.28000000      12.78253496      20.00000000
C       45.51000000      13.49267579      20.00000000
C       43.05000000      14.91295745      20.00000000
C       44.28000000      15.62309828      20.00000000
C       41.82000000      17.04337995      20.00000000
C       43.05000000      17.75352078      20.00000000
C       40.59000000      19.17380244      20.00000000
C       41.82000000      19.88394327      20.00000000
C       39.36000000      21.30422493      20.00000000
C       40.59000000      22.01436576      20.00000000
C       38.13000000      23.43464743      20.00000000
C       39.36000000      24.14478826      20.00000000
C       36.90000000      25.56506992      20.00000000
C       38.13000000      26.27521075      20.00000000
C       35.67000000      27.69549241      20.00000000
C       36.90000000      28.40563324      20.00000000
C       34.44000000      29.82591491      20.00000000
C       35.67000000      30.53605574      20.00000000
C       33.21000000      31.95633740      20.00000000
C       34.44000000      32.66647823      20.00000000
C       31.98000000      34.08675989      20.00000000
C       33.21000000      34.79690072      20.00000000
C       30.75000000      36.21718239      20.00000000
C       31.98000000      36.92732322      20.00000000
C       29.52000000      38.34760488      20.00000000
C       30.75000000      39.05774571      20.00000000
C       28.29000000      40.47802737      20.00000000
C       29.52000000      41.18816820      20.00000000
C       27.06000000      42.60844987      20.00000000
C       28.29000000      43.31859070      20.00000000
C       25.83000000      44.73887236      20.00000000
C       27.06000000      45.44901319      20.00000000
C       24.60000000      46.86929485      20.00000000
C       25.83000000      47.57943568      20.00000000
C       23.37000000      48.99971735      20.00000000
C       24.60000000      49.70985818      20.00000000
C       22.14000000      51.13013984      20.00000000
C       23.37000000      51.84028067      20.00000000
C       54.12000000       0.00000000      20.00000000
C       55.35000000       0.71014083      20.00000000
C       52.89000000       2.13042249      20.00000000
C       54.12000000       2.84056332      20.00000000
C       51.66000000       4.26084499      20.00000000
C       52.89000000       4.97098582      20.00000000
C       50.43000000       6.39126748      20.00000000
C       51.66000000       7.10140831      20.00000000
C       49.20000000       8.52168997      20.00000000
C       50.43000000       9.23183080      20.00000000
C       47.97000000      10.65211247      20.00000000
C       49.20000000      11.36225330      20.00000000
C       46.74000000      12.78253496      20.00000000
C       47.97000000      13.49267579      20.00000000
C       45.51000000      14.91295745      20.00000000
C       46.74000000      15.62309828      20.00000000
C       44.28000000      17.04337995      20.00000000
C       45.51000000      17.75352078      20.00000000
C       43.05000000      19.17380244      20.00000000
C       44.28000000      19.88394327      20.00000000
C       41.82000000      21.30422493      20.00000000
C       43.05000000      22.01436576      20.00000000
C       40.59000000      23.43464743      20.00000000
C       41.82000000      24.14478826      20.00000000
C       39.36000000      25.56506992      20.00000000
C       40.59000000      26.27521075      20.00000000
C       38.13000000      27.69549241      20.00000000
C       39.36000000      28.40563324      20.00000000
C       36.90000000      29.82591491      20.00000000
C       38.13000000      30.53605574      20.00000000
C       35.67000000      31.95633740      20.00000000
C       36.90000000      32.66647823      20.00000000
C       34.44000000      34.08675989      20.00000000
C       35.67000000      34.79690072      20.00000000
C       33.21000000      36.21718239      20.00000000
C       34.44000000      36.92732322      20.00000000
C       31.98000000      38.34760488      20.00000000
C       33.21000000      39.05774571      20.00000000
C       30.75000000      40.47802737      20.00000000
C       31.98000000      41.18816820      20.00000000
C       29.52000000      42.60844987      20.00000000
C       30.75000000      43.31859070      20.00000000
C       28.29000000      44.73887236      20.00000000
C       29.52000000      45.44901319      20.00000000
C       27.06000000      46.86929485      20.00000000
C       28.29000000      47.57943568      20.00000000
C       25.83000000      48.99971735      20.00000000
C       27.06000000      49.70985818      20.00000000
C       24.60000000      51.13013984      20.00000000
C       25.83000000      51.84028067      20.00000000
C       56.58000000       0.00000000      20.00000000
C       57.81000000       0.71014083      20.00000000
C       55.35000000       2.13042249      20.00000000
C       56.58000000       2.84056332      20.00000000
C       54.12000000       4.26084499      20.00000000
C       55.35000000       4.97098582      20.00000000
C       52.89000000       6.39126748      20.00000000
C       54.12000000       7.10140831      20.00000000
C       51.66000000       8.52168997      20.00000000
C       52.89000000       9.23183080      20.00000000
C       50.43000000      10.65211247      20.00000000
C       51.66000000      11.36225330      20.00000000
C       49.20000000      12.78253496      20.00000000
C       50.43000000      13.49267579      20.00000000
C       47.97000000      14.91295745      20.00000000
C       49.20000000      15.62309828      20.00000000
C       46.74000000      17.04337995      20.00000000
C       47.97000000      17.75352078      20.00000000
C       45.51000000      19.17380244      20.00000000
C       46.74000000      19.88394327      20.00000000
C       44.28000000      21.30422493      20.00000000
C       45.51000000      22.01436576      20.00000000
C       43.05000000      23.43464743      20.00000000
C       44.28000000      24.14478826      20.00000000
C       41.82000000      25.56506992      20.00000000
C       43.05000000      26.27521075      20.00000000
C       40.59000000      27.69549241      20.00000000
C       41.82000000      28.40563324      20.00000000
C       39.36000000      29.82591491      20.00000000
C       40.59000000      30.53605574      20.00000000
C       38.13000000      31.95633740      20.00000000
C       39.36000000      32.66647823      20.00000000
C       36.90000000      34.08675989      20.00000000
C       38.13000000      34.79690072      20.00000000
C       35.67000000      36.21718239      20.00000000
C       36.90000000      36.92732322      20.00000000
C       34.44000000      38.34760488      20.00000000
C       35.67000000      39.05774571      20.00000000
C       33.21000000      40.47802737      20.00000000
C       34.44000000      41.18816820      20.00000000
C       31.98000000      42.60844987      20.00000000
C       33.21000000      43.31859070      20.00000000
C       30.75000000      44.73887236      20.00000000
C       31.98000000      45.44901319      20.00000000
C       29.52000000      46.86929485      20.00000000
C       30.75000000      47.57943568      20.00000000
C       28.29000000      48.99971735      20.00000000
C       29.52000000      49.70985818      20.00000000
C       27.06000000      51.13013984      20.00000000
C       28.29000000      51.84028067      20.00000000
C       59.04000000       0.00000000      20.00000000
C       60.27000000       0.71014083      20.00000000
C       57.81000000       2.13042249      20.00000000
C       59.04000000       2.84056332      20.00000000
C       56.58000000       4.26084499      20.00000000
C       57.81000000       4.97098582      20.00000000
C       55.35000000       6.39126748      20.00000000
C       56.58000000       7.10140831      20.00000000
C       54.12000000       8.52168997      20.00000000
C       55.35000000       9.23183080      20.00000000
C       52.89000000      10.65211247      20.00000000
C       54.12000000      11.36225330      20.00000000
C       51.66000000      12.78253496      20.00000000
C       52.89000000      13.49267579      20.00000000
C       50.43000000      14.91295745      20.00000000
C       51.66000000      15.62309828      20.00000000
C       49.20000000      17.04337995      20.00000000
C       50.43000000      17.75352078      20.00000000
C       47.97000000      19.17380244      20.00000000
C       49.20000000      19.88394327      20.00000000
C       46.74000000      21.30422493      20.00000000
C       47.97000000      22.01436576      20.00000000
C       45.51000000      23.43464743      20.00000000
C       46.74000000      24.14478826      20.00000000
C       44.28000000      25.56506992      20.00000000
C       45.51000000      26.27521075      20.00000000
C       43.05000000      27.69549241      20.00000000
C       44.28000000      28.40563324      20.00000000
C       41.82000000      29.82591491      20.00000000
C       43.05000000      30.53605574      20.00000000
C       40.59000000      31.95633740      20.00000000
C       41.82000000      32.66647823      20.00000000
C       39.36000000      34.08675989      20.00000000
C       40.59000000      34.79690072      20.00000000
C       38.13000000      36.21718239      20.00000000
C       39.36000000      36.92732322      20.00000000
C       36.90000000      38.34760488      20.00000000
C       38.13000000      39.05774571      20.00000000
C       35.67000000      40.47802737      20.00000000
C       36.90000000      41.18816820      20.00000000
C       34.44000000      42.60844987      20.00000000
C       35.67000000      43.31859070      20.00000000
C       33.21000000      44.73887236      20.00000000
C       34.44000000      45.44901319      20.00000000
C       31.98000000      46.86929485      20.00000000
C       33.21000000      47.57943568      20.00000000
C       30.75000000      48.99971735      20.00000000
C       31.98000000      49.70985818      20.00000000
C       29.52000000      51.13013984      20.00000000
C       30.75000000      51.84028067      20.00000000
