3820
IFF graphene + neutral GAFF2 Pyrene-PEG5; X = cge pi pseudo-particle
C 0.000000 0.000000 20.000000
C 1.230000 0.710141 20.000000
C -1.230000 2.130422 20.000000
C 0.000000 2.840563 20.000000
C -2.460000 4.260845 20.000000
C -1.230000 4.970986 20.000000
C -3.690000 6.391267 20.000000
C -2.460000 7.101408 20.000000
C -4.920000 8.521690 20.000000
C -3.690000 9.231831 20.000000
C -6.150000 10.652112 20.000000
C -4.920000 11.362253 20.000000
C -7.380000 12.782535 20.000000
C -6.150000 13.492676 20.000000
C -8.610000 14.912957 20.000000
C -7.380000 15.623098 20.000000
C -9.840000 17.043380 20.000000
C -8.610000 17.753521 20.000000
C -11.070000 19.173802 20.000000
C -9.840000 19.883943 20.000000
C -12.300000 21.304225 20.000000
C -11.070000 22.014366 20.000000
C -13.530000 23.434647 20.000000
C -12.300000 24.144788 20.000000
C -14.760000 25.565070 20.000000
C -13.530000 26.275211 20.000000
C -15.990000 27.695492 20.000000
C -14.760000 28.405633 20.000000
C -17.220000 29.825915 20.000000
C -15.990000 30.536056 20.000000
C -18.450000 31.956337 20.000000
C -17.220000 32.666478 20.000000
C -19.680000 34.086760 20.000000
C -18.450000 34.796901 20.000000
C -20.910000 36.217182 20.000000
C -19.680000 36.927323 20.000000
C -22.140000 38.347605 20.000000
C -20.910000 39.057746 20.000000
C -23.370000 40.478027 20.000000
C -22.140000 41.188168 20.000000
C -24.600000 42.608450 20.000000
C -23.370000 43.318591 20.000000
C -25.830000 44.738872 20.000000
C -24.600000 45.449013 20.000000
C -27.060000 46.869295 20.000000
C -25.830000 47.579436 20.000000
C -28.290000 48.999717 20.000000
C -27.060000 49.709858 20.000000
C -29.520000 51.130140 20.000000
C -28.290000 51.840281 20.000000
C 2.460000 0.000000 20.000000
C 3.690000 0.710141 20.000000
C 1.230000 2.130422 20.000000
C 2.460000 2.840563 20.000000
C 0.000000 4.260845 20.000000
C 1.230000 4.970986 20.000000
C -1.230000 6.391267 20.000000
C 0.000000 7.101408 20.000000
C -2.460000 8.521690 20.000000
C -1.230000 9.231831 20.000000
C -3.690000 10.652112 20.000000
C -2.460000 11.362253 20.000000
C -4.920000 12.782535 20.000000
C -3.690000 13.492676 20.000000
C -6.150000 14.912957 20.000000
C -4.920000 15.623098 20.000000
C -7.380000 17.043380 20.000000
C -6.150000 17.753521 20.000000
C -8.610000 19.173802 20.000000
C -7.380000 19.883943 20.000000
C -9.840000 21.304225 20.000000
C -8.610000 22.014366 20.000000
C -11.070000 23.434647 20.000000
C -9.840000 24.144788 20.000000
C -12.300000 25.565070 20.000000
C -11.070000 26.275211 20.000000
C -13.530000 27.695492 20.000000
C -12.300000 28.405633 20.000000
C -14.760000 29.825915 20.000000
C -13.530000 30.536056 20.000000
C -15.990000 31.956337 20.000000
C -14.760000 32.666478 20.000000
C -17.220000 34.086760 20.000000
C -15.990000 34.796901 20.000000
C -18.450000 36.217182 20.000000
C -17.220000 36.927323 20.000000
C -19.680000 38.347605 20.000000
C -18.450000 39.057746 20.000000
C -20.910000 40.478027 20.000000
C -19.680000 41.188168 20.000000
C -22.140000 42.608450 20.000000
C -20.910000 43.318591 20.000000
C -23.370000 44.738872 20.000000
C -22.140000 45.449013 20.000000
C -24.600000 46.869295 20.000000
C -23.370000 47.579436 20.000000
C -25.830000 48.999717 20.000000
C -24.600000 49.709858 20.000000
C -27.060000 51.130140 20.000000
C -25.830000 51.840281 20.000000
C 4.920000 0.000000 20.000000
C 6.150000 0.710141 20.000000
C 3.690000 2.130422 20.000000
C 4.920000 2.840563 20.000000
C 2.460000 4.260845 20.000000
C 3.690000 4.970986 20.000000
C 1.230000 6.391267 20.000000
C 2.460000 7.101408 20.000000
C 0.000000 8.521690 20.000000
C 1.230000 9.231831 20.000000
C -1.230000 10.652112 20.000000
C -0.000000 11.362253 20.000000
C -2.460000 12.782535 20.000000
C -1.230000 13.492676 20.000000
C -3.690000 14.912957 20.000000
C -2.460000 15.623098 20.000000
C -4.920000 17.043380 20.000000
C -3.690000 17.753521 20.000000
C -6.150000 19.173802 20.000000
C -4.920000 19.883943 20.000000
C -7.380000 21.304225 20.000000
C -6.150000 22.014366 20.000000
C -8.610000 23.434647 20.000000
C -7.380000 24.144788 20.000000
C -9.840000 25.565070 20.000000
C -8.610000 26.275211 20.000000
C -11.070000 27.695492 20.000000
C -9.840000 28.405633 20.000000
C -12.300000 29.825915 20.000000
C -11.070000 30.536056 20.000000
C -13.530000 31.956337 20.000000
C -12.300000 32.666478 20.000000
C -14.760000 34.086760 20.000000
C -13.530000 34.796901 20.000000
C -15.990000 36.217182 20.000000
C -14.760000 36.927323 20.000000
C -17.220000 38.347605 20.000000
C -15.990000 39.057746 20.000000
C -18.450000 40.478027 20.000000
C -17.220000 41.188168 20.000000
C -19.680000 42.608450 20.000000
C -18.450000 43.318591 20.000000
C -20.910000 44.738872 20.000000
C -19.680000 45.449013 20.000000
C -22.140000 46.869295 20.000000
C -20.910000 47.579436 20.000000
C -23.370000 48.999717 20.000000
C -22.140000 49.709858 20.000000
C -24.600000 51.130140 20.000000
C -23.370000 51.840281 20.000000
C 7.380000 0.000000 20.000000
C 8.610000 0.710141 20.000000
C 6.150000 2.130422 20.000000
C 7.380000 2.840563 20.000000
C 4.920000 4.260845 20.000000
C 6.150000 4.970986 20.000000
C 3.690000 6.391267 20.000000
C 4.920000 7.101408 20.000000
C 2.460000 8.521690 20.000000
C 3.690000 9.231831 20.000000
C 1.230000 10.652112 20.000000
C 2.460000 11.362253 20.000000
C 0.000000 12.782535 20.000000
C 1.230000 13.492676 20.000000
C -1.230000 14.912957 20.000000
C 0.000000 15.623098 20.000000
C -2.460000 17.043380 20.000000
C -1.230000 17.753521 20.000000
C -3.690000 19.173802 20.000000
C -2.460000 19.883943 20.000000
C -4.920000 21.304225 20.000000
C -3.690000 22.014366 20.000000
C -6.150000 23.434647 20.000000
C -4.920000 24.144788 20.000000
C -7.380000 25.565070 20.000000
C -6.150000 26.275211 20.000000
C -8.610000 27.695492 20.000000
C -7.380000 28.405633 20.000000
C -9.840000 29.825915 20.000000
C -8.610000 30.536056 20.000000
C -11.070000 31.956337 20.000000
C -9.840000 32.666478 20.000000
C -12.300000 34.086760 20.000000
C -11.070000 34.796901 20.000000
C -13.530000 36.217182 20.000000
C -12.300000 36.927323 20.000000
C -14.760000 38.347605 20.000000
C -13.530000 39.057746 20.000000
C -15.990000 40.478027 20.000000
C -14.760000 41.188168 20.000000
C -17.220000 42.608450 20.000000
C -15.990000 43.318591 20.000000
C -18.450000 44.738872 20.000000
C -17.220000 45.449013 20.000000
C -19.680000 46.869295 20.000000
C -18.450000 47.579436 20.000000
C -20.910000 48.999717 20.000000
C -19.680000 49.709858 20.000000
C -22.140000 51.130140 20.000000
C -20.910000 51.840281 20.000000
C 9.840000 0.000000 20.000000
C 11.070000 0.710141 20.000000
C 8.610000 2.130422 20.000000
C 9.840000 2.840563 20.000000
C 7.380000 4.260845 20.000000
C 8.610000 4.970986 20.000000
C 6.150000 6.391267 20.000000
C 7.380000 7.101408 20.000000
C 4.920000 8.521690 20.000000
C 6.150000 9.231831 20.000000
C 3.690000 10.652112 20.000000
C 4.920000 11.362253 20.000000
C 2.460000 12.782535 20.000000
C 3.690000 13.492676 20.000000
C 1.230000 14.912957 20.000000
C 2.460000 15.623098 20.000000
C 0.000000 17.043380 20.000000
C 1.230000 17.753521 20.000000
C -1.230000 19.173802 20.000000
C -0.000000 19.883943 20.000000
C -2.460000 21.304225 20.000000
C -1.230000 22.014366 20.000000
C -3.690000 23.434647 20.000000
C -2.460000 24.144788 20.000000
C -4.920000 25.565070 20.000000
C -3.690000 26.275211 20.000000
C -6.150000 27.695492 20.000000
C -4.920000 28.405633 20.000000
C -7.380000 29.825915 20.000000
C -6.150000 30.536056 20.000000
C -8.610000 31.956337 20.000000
C -7.380000 32.666478 20.000000
C -9.840000 34.086760 20.000000
C -8.610000 34.796901 20.000000
C -11.070000 36.217182 20.000000
C -9.840000 36.927323 20.000000
C -12.300000 38.347605 20.000000
C -11.070000 39.057746 20.000000
C -13.530000 40.478027 20.000000
C -12.300000 41.188168 20.000000
C -14.760000 42.608450 20.000000
C -13.530000 43.318591 20.000000
C -15.990000 44.738872 20.000000
C -14.760000 45.449013 20.000000
C -17.220000 46.869295 20.000000
C -15.990000 47.579436 20.000000
C -18.450000 48.999717 20.000000
C -17.220000 49.709858 20.000000
C -19.680000 51.130140 20.000000
C -18.450000 51.840281 20.000000
C 12.300000 0.000000 20.000000
C 13.530000 0.710141 20.000000
C 11.070000 2.130422 20.000000
C 12.300000 2.840563 20.000000
C 9.840000 4.260845 20.000000
C 11.070000 4.970986 20.000000
C 8.610000 6.391267 20.000000
C 9.840000 7.101408 20.000000
C 7.380000 8.521690 20.000000
C 8.610000 9.231831 20.000000
C 6.150000 10.652112 20.000000
C 7.380000 11.362253 20.000000
C 4.920000 12.782535 20.000000
C 6.150000 13.492676 20.000000
C 3.690000 14.912957 20.000000
C 4.920000 15.623098 20.000000
C 2.460000 17.043380 20.000000
C 3.690000 17.753521 20.000000
C 1.230000 19.173802 20.000000
C 2.460000 19.883943 20.000000
C 0.000000 21.304225 20.000000
C 1.230000 22.014366 20.000000
C -1.230000 23.434647 20.000000
C 0.000000 24.144788 20.000000
C -2.460000 25.565070 20.000000
C -1.230000 26.275211 20.000000
C -3.690000 27.695492 20.000000
C -2.460000 28.405633 20.000000
C -4.920000 29.825915 20.000000
C -3.690000 30.536056 20.000000
C -6.150000 31.956337 20.000000
C -4.920000 32.666478 20.000000
C -7.380000 34.086760 20.000000
C -6.150000 34.796901 20.000000
C -8.610000 36.217182 20.000000
C -7.380000 36.927323 20.000000
C -9.840000 38.347605 20.000000
C -8.610000 39.057746 20.000000
C -11.070000 40.478027 20.000000
C -9.840000 41.188168 20.000000
C -12.300000 42.608450 20.000000
C -11.070000 43.318591 20.000000
C -13.530000 44.738872 20.000000
C -12.300000 45.449013 20.000000
C -14.760000 46.869295 20.000000
C -13.530000 47.579436 20.000000
C -15.990000 48.999717 20.000000
C -14.760000 49.709858 20.000000
C -17.220000 51.130140 20.000000
C -15.990000 51.840281 20.000000
C 14.760000 0.000000 20.000000
C 15.990000 0.710141 20.000000
C 13.530000 2.130422 20.000000
C 14.760000 2.840563 20.000000
C 12.300000 4.260845 20.000000
C 13.530000 4.970986 20.000000
C 11.070000 6.391267 20.000000
C 12.300000 7.101408 20.000000
C 9.840000 8.521690 20.000000
C 11.070000 9.231831 20.000000
C 8.610000 10.652112 20.000000
C 9.840000 11.362253 20.000000
C 7.380000 12.782535 20.000000
C 8.610000 13.492676 20.000000
C 6.150000 14.912957 20.000000
C 7.380000 15.623098 20.000000
C 4.920000 17.043380 20.000000
C 6.150000 17.753521 20.000000
C 3.690000 19.173802 20.000000
C 4.920000 19.883943 20.000000
C 2.460000 21.304225 20.000000
C 3.690000 22.014366 20.000000
C 1.230000 23.434647 20.000000
C 2.460000 24.144788 20.000000
C 0.000000 25.565070 20.000000
C 1.230000 26.275211 20.000000
C -1.230000 27.695492 20.000000
C -0.000000 28.405633 20.000000
C -2.460000 29.825915 20.000000
C -1.230000 30.536056 20.000000
C -3.690000 31.956337 20.000000
C -2.460000 32.666478 20.000000
C -4.920000 34.086760 20.000000
C -3.690000 34.796901 20.000000
C -6.150000 36.217182 20.000000
C -4.920000 36.927323 20.000000
C -7.380000 38.347605 20.000000
C -6.150000 39.057746 20.000000
C -8.610000 40.478027 20.000000
C -7.380000 41.188168 20.000000
C -9.840000 42.608450 20.000000
C -8.610000 43.318591 20.000000
C -11.070000 44.738872 20.000000
C -9.840000 45.449013 20.000000
C -12.300000 46.869295 20.000000
C -11.070000 47.579436 20.000000
C -13.530000 48.999717 20.000000
C -12.300000 49.709858 20.000000
C -14.760000 51.130140 20.000000
C -13.530000 51.840281 20.000000
C 17.220000 0.000000 20.000000
C 18.450000 0.710141 20.000000
C 15.990000 2.130422 20.000000
C 17.220000 2.840563 20.000000
C 14.760000 4.260845 20.000000
C 15.990000 4.970986 20.000000
C 13.530000 6.391267 20.000000
C 14.760000 7.101408 20.000000
C 12.300000 8.521690 20.000000
C 13.530000 9.231831 20.000000
C 11.070000 10.652112 20.000000
C 12.300000 11.362253 20.000000
C 9.840000 12.782535 20.000000
C 11.070000 13.492676 20.000000
C 8.610000 14.912957 20.000000
C 9.840000 15.623098 20.000000
C 7.380000 17.043380 20.000000
C 8.610000 17.753521 20.000000
C 6.150000 19.173802 20.000000
C 7.380000 19.883943 20.000000
C 4.920000 21.304225 20.000000
C 6.150000 22.014366 20.000000
C 3.690000 23.434647 20.000000
C 4.920000 24.144788 20.000000
C 2.460000 25.565070 20.000000
C 3.690000 26.275211 20.000000
C 1.230000 27.695492 20.000000
C 2.460000 28.405633 20.000000
C 0.000000 29.825915 20.000000
C 1.230000 30.536056 20.000000
C -1.230000 31.956337 20.000000
C -0.000000 32.666478 20.000000
C -2.460000 34.086760 20.000000
C -1.230000 34.796901 20.000000
C -3.690000 36.217182 20.000000
C -2.460000 36.927323 20.000000
C -4.920000 38.347605 20.000000
C -3.690000 39.057746 20.000000
C -6.150000 40.478027 20.000000
C -4.920000 41.188168 20.000000
C -7.380000 42.608450 20.000000
C -6.150000 43.318591 20.000000
C -8.610000 44.738872 20.000000
C -7.380000 45.449013 20.000000
C -9.840000 46.869295 20.000000
C -8.610000 47.579436 20.000000
C -11.070000 48.999717 20.000000
C -9.840000 49.709858 20.000000
C -12.300000 51.130140 20.000000
C -11.070000 51.840281 20.000000
C 19.680000 0.000000 20.000000
C 20.910000 0.710141 20.000000
C 18.450000 2.130422 20.000000
C 19.680000 2.840563 20.000000
C 17.220000 4.260845 20.000000
C 18.450000 4.970986 20.000000
C 15.990000 6.391267 20.000000
C 17.220000 7.101408 20.000000
C 14.760000 8.521690 20.000000
C 15.990000 9.231831 20.000000
C 13.530000 10.652112 20.000000
C 14.760000 11.362253 20.000000
C 12.300000 12.782535 20.000000
C 13.530000 13.492676 20.000000
C 11.070000 14.912957 20.000000
C 12.300000 15.623098 20.000000
C 9.840000 17.043380 20.000000
C 11.070000 17.753521 20.000000
C 8.610000 19.173802 20.000000
C 9.840000 19.883943 20.000000
C 7.380000 21.304225 20.000000
C 8.610000 22.014366 20.000000
C 6.150000 23.434647 20.000000
C 7.380000 24.144788 20.000000
C 4.920000 25.565070 20.000000
C 6.150000 26.275211 20.000000
C 3.690000 27.695492 20.000000
C 4.920000 28.405633 20.000000
C 2.460000 29.825915 20.000000
C 3.690000 30.536056 20.000000
C 1.230000 31.956337 20.000000
C 2.460000 32.666478 20.000000
C 0.000000 34.086760 20.000000
C 1.230000 34.796901 20.000000
C -1.230000 36.217182 20.000000
C -0.000000 36.927323 20.000000
C -2.460000 38.347605 20.000000
C -1.230000 39.057746 20.000000
C -3.690000 40.478027 20.000000
C -2.460000 41.188168 20.000000
C -4.920000 42.608450 20.000000
C -3.690000 43.318591 20.000000
C -6.150000 44.738872 20.000000
C -4.920000 45.449013 20.000000
C -7.380000 46.869295 20.000000
C -6.150000 47.579436 20.000000
C -8.610000 48.999717 20.000000
C -7.380000 49.709858 20.000000
C -9.840000 51.130140 20.000000
C -8.610000 51.840281 20.000000
C 22.140000 0.000000 20.000000
C 23.370000 0.710141 20.000000
C 20.910000 2.130422 20.000000
C 22.140000 2.840563 20.000000
C 19.680000 4.260845 20.000000
C 20.910000 4.970986 20.000000
C 18.450000 6.391267 20.000000
C 19.680000 7.101408 20.000000
C 17.220000 8.521690 20.000000
C 18.450000 9.231831 20.000000
C 15.990000 10.652112 20.000000
C 17.220000 11.362253 20.000000
C 14.760000 12.782535 20.000000
C 15.990000 13.492676 20.000000
C 13.530000 14.912957 20.000000
C 14.760000 15.623098 20.000000
C 12.300000 17.043380 20.000000
C 13.530000 17.753521 20.000000
C 11.070000 19.173802 20.000000
C 12.300000 19.883943 20.000000
C 9.840000 21.304225 20.000000
C 11.070000 22.014366 20.000000
C 8.610000 23.434647 20.000000
C 9.840000 24.144788 20.000000
C 7.380000 25.565070 20.000000
C 8.610000 26.275211 20.000000
C 6.150000 27.695492 20.000000
C 7.380000 28.405633 20.000000
C 4.920000 29.825915 20.000000
C 6.150000 30.536056 20.000000
C 3.690000 31.956337 20.000000
C 4.920000 32.666478 20.000000
C 2.460000 34.086760 20.000000
C 3.690000 34.796901 20.000000
C 1.230000 36.217182 20.000000
C 2.460000 36.927323 20.000000
C 0.000000 38.347605 20.000000
C 1.230000 39.057746 20.000000
C -1.230000 40.478027 20.000000
C -0.000000 41.188168 20.000000
C -2.460000 42.608450 20.000000
C -1.230000 43.318591 20.000000
C -3.690000 44.738872 20.000000
C -2.460000 45.449013 20.000000
C -4.920000 46.869295 20.000000
C -3.690000 47.579436 20.000000
C -6.150000 48.999717 20.000000
C -4.920000 49.709858 20.000000
C -7.380000 51.130140 20.000000
C -6.150000 51.840281 20.000000
C 24.600000 0.000000 20.000000
C 25.830000 0.710141 20.000000
C 23.370000 2.130422 20.000000
C 24.600000 2.840563 20.000000
C 22.140000 4.260845 20.000000
C 23.370000 4.970986 20.000000
C 20.910000 6.391267 20.000000
C 22.140000 7.101408 20.000000
C 19.680000 8.521690 20.000000
C 20.910000 9.231831 20.000000
C 18.450000 10.652112 20.000000
C 19.680000 11.362253 20.000000
C 17.220000 12.782535 20.000000
C 18.450000 13.492676 20.000000
C 15.990000 14.912957 20.000000
C 17.220000 15.623098 20.000000
C 14.760000 17.043380 20.000000
C 15.990000 17.753521 20.000000
C 13.530000 19.173802 20.000000
C 14.760000 19.883943 20.000000
C 12.300000 21.304225 20.000000
C 13.530000 22.014366 20.000000
C 11.070000 23.434647 20.000000
C 12.300000 24.144788 20.000000
C 9.840000 25.565070 20.000000
C 11.070000 26.275211 20.000000
C 8.610000 27.695492 20.000000
C 9.840000 28.405633 20.000000
C 7.380000 29.825915 20.000000
C 8.610000 30.536056 20.000000
C 6.150000 31.956337 20.000000
C 7.380000 32.666478 20.000000
C 4.920000 34.086760 20.000000
C 6.150000 34.796901 20.000000
C 3.690000 36.217182 20.000000
C 4.920000 36.927323 20.000000
C 2.460000 38.347605 20.000000
C 3.690000 39.057746 20.000000
C 1.230000 40.478027 20.000000
C 2.460000 41.188168 20.000000
C 0.000000 42.608450 20.000000
C 1.230000 43.318591 20.000000
C -1.230000 44.738872 20.000000
C 0.000000 45.449013 20.000000
C -2.460000 46.869295 20.000000
C -1.230000 47.579436 20.000000
C -3.690000 48.999717 20.000000
C -2.460000 49.709858 20.000000
C -4.920000 51.130140 20.000000
C -3.690000 51.840281 20.000000
C 27.060000 0.000000 20.000000
C 28.290000 0.710141 20.000000
C 25.830000 2.130422 20.000000
C 27.060000 2.840563 20.000000
C 24.600000 4.260845 20.000000
C 25.830000 4.970986 20.000000
C 23.370000 6.391267 20.000000
C 24.600000 7.101408 20.000000
C 22.140000 8.521690 20.000000
C 23.370000 9.231831 20.000000
C 20.910000 10.652112 20.000000
C 22.140000 11.362253 20.000000
C 19.680000 12.782535 20.000000
C 20.910000 13.492676 20.000000
C 18.450000 14.912957 20.000000
C 19.680000 15.623098 20.000000
C 17.220000 17.043380 20.000000
C 18.450000 17.753521 20.000000
C 15.990000 19.173802 20.000000
C 17.220000 19.883943 20.000000
C 14.760000 21.304225 20.000000
C 15.990000 22.014366 20.000000
C 13.530000 23.434647 20.000000
C 14.760000 24.144788 20.000000
C 12.300000 25.565070 20.000000
C 13.530000 26.275211 20.000000
C 11.070000 27.695492 20.000000
C 12.300000 28.405633 20.000000
C 9.840000 29.825915 20.000000
C 11.070000 30.536056 20.000000
C 8.610000 31.956337 20.000000
C 9.840000 32.666478 20.000000
C 7.380000 34.086760 20.000000
C 8.610000 34.796901 20.000000
C 6.150000 36.217182 20.000000
C 7.380000 36.927323 20.000000
C 4.920000 38.347605 20.000000
C 6.150000 39.057746 20.000000
C 3.690000 40.478027 20.000000
C 4.920000 41.188168 20.000000
C 2.460000 42.608450 20.000000
C 3.690000 43.318591 20.000000
C 1.230000 44.738872 20.000000
C 2.460000 45.449013 20.000000
C 0.000000 46.869295 20.000000
C 1.230000 47.579436 20.000000
C -1.230000 48.999717 20.000000
C -0.000000 49.709858 20.000000
C -2.460000 51.130140 20.000000
C -1.230000 51.840281 20.000000
C 29.520000 0.000000 20.000000
C 30.750000 0.710141 20.000000
C 28.290000 2.130422 20.000000
C 29.520000 2.840563 20.000000
C 27.060000 4.260845 20.000000
C 28.290000 4.970986 20.000000
C 25.830000 6.391267 20.000000
C 27.060000 7.101408 20.000000
C 24.600000 8.521690 20.000000
C 25.830000 9.231831 20.000000
C 23.370000 10.652112 20.000000
C 24.600000 11.362253 20.000000
C 22.140000 12.782535 20.000000
C 23.370000 13.492676 20.000000
C 20.910000 14.912957 20.000000
C 22.140000 15.623098 20.000000
C 19.680000 17.043380 20.000000
C 20.910000 17.753521 20.000000
C 18.450000 19.173802 20.000000
C 19.680000 19.883943 20.000000
C 17.220000 21.304225 20.000000
C 18.450000 22.014366 20.000000
C 15.990000 23.434647 20.000000
C 17.220000 24.144788 20.000000
C 14.760000 25.565070 20.000000
C 15.990000 26.275211 20.000000
C 13.530000 27.695492 20.000000
C 14.760000 28.405633 20.000000
C 12.300000 29.825915 20.000000
C 13.530000 30.536056 20.000000
C 11.070000 31.956337 20.000000
C 12.300000 32.666478 20.000000
C 9.840000 34.086760 20.000000
C 11.070000 34.796901 20.000000
C 8.610000 36.217182 20.000000
C 9.840000 36.927323 20.000000
C 7.380000 38.347605 20.000000
C 8.610000 39.057746 20.000000
C 6.150000 40.478027 20.000000
C 7.380000 41.188168 20.000000
C 4.920000 42.608450 20.000000
C 6.150000 43.318591 20.000000
C 3.690000 44.738872 20.000000
C 4.920000 45.449013 20.000000
C 2.460000 46.869295 20.000000
C 3.690000 47.579436 20.000000
C 1.230000 48.999717 20.000000
C 2.460000 49.709858 20.000000
C 0.000000 51.130140 20.000000
C 1.230000 51.840281 20.000000
C 31.980000 0.000000 20.000000
C 33.210000 0.710141 20.000000
C 30.750000 2.130422 20.000000
C 31.980000 2.840563 20.000000
C 29.520000 4.260845 20.000000
C 30.750000 4.970986 20.000000
C 28.290000 6.391267 20.000000
C 29.520000 7.101408 20.000000
C 27.060000 8.521690 20.000000
C 28.290000 9.231831 20.000000
C 25.830000 10.652112 20.000000
C 27.060000 11.362253 20.000000
C 24.600000 12.782535 20.000000
C 25.830000 13.492676 20.000000
C 23.370000 14.912957 20.000000
C 24.600000 15.623098 20.000000
C 22.140000 17.043380 20.000000
C 23.370000 17.753521 20.000000
C 20.910000 19.173802 20.000000
C 22.140000 19.883943 20.000000
C 19.680000 21.304225 20.000000
C 20.910000 22.014366 20.000000
C 18.450000 23.434647 20.000000
C 19.680000 24.144788 20.000000
C 17.220000 25.565070 20.000000
C 18.450000 26.275211 20.000000
C 15.990000 27.695492 20.000000
C 17.220000 28.405633 20.000000
C 14.760000 29.825915 20.000000
C 15.990000 30.536056 20.000000
C 13.530000 31.956337 20.000000
C 14.760000 32.666478 20.000000
C 12.300000 34.086760 20.000000
C 13.530000 34.796901 20.000000
C 11.070000 36.217182 20.000000
C 12.300000 36.927323 20.000000
C 9.840000 38.347605 20.000000
C 11.070000 39.057746 20.000000
C 8.610000 40.478027 20.000000
C 9.840000 41.188168 20.000000
C 7.380000 42.608450 20.000000
C 8.610000 43.318591 20.000000
C 6.150000 44.738872 20.000000
C 7.380000 45.449013 20.000000
C 4.920000 46.869295 20.000000
C 6.150000 47.579436 20.000000
C 3.690000 48.999717 20.000000
C 4.920000 49.709858 20.000000
C 2.460000 51.130140 20.000000
C 3.690000 51.840281 20.000000
C 34.440000 0.000000 20.000000
C 35.670000 0.710141 20.000000
C 33.210000 2.130422 20.000000
C 34.440000 2.840563 20.000000
C 31.980000 4.260845 20.000000
C 33.210000 4.970986 20.000000
C 30.750000 6.391267 20.000000
C 31.980000 7.101408 20.000000
C 29.520000 8.521690 20.000000
C 30.750000 9.231831 20.000000
C 28.290000 10.652112 20.000000
C 29.520000 11.362253 20.000000
C 27.060000 12.782535 20.000000
C 28.290000 13.492676 20.000000
C 25.830000 14.912957 20.000000
C 27.060000 15.623098 20.000000
C 24.600000 17.043380 20.000000
C 25.830000 17.753521 20.000000
C 23.370000 19.173802 20.000000
C 24.600000 19.883943 20.000000
C 22.140000 21.304225 20.000000
C 23.370000 22.014366 20.000000
C 20.910000 23.434647 20.000000
C 22.140000 24.144788 20.000000
C 19.680000 25.565070 20.000000
C 20.910000 26.275211 20.000000
C 18.450000 27.695492 20.000000
C 19.680000 28.405633 20.000000
C 17.220000 29.825915 20.000000
C 18.450000 30.536056 20.000000
C 15.990000 31.956337 20.000000
C 17.220000 32.666478 20.000000
C 14.760000 34.086760 20.000000
C 15.990000 34.796901 20.000000
C 13.530000 36.217182 20.000000
C 14.760000 36.927323 20.000000
C 12.300000 38.347605 20.000000
C 13.530000 39.057746 20.000000
C 11.070000 40.478027 20.000000
C 12.300000 41.188168 20.000000
C 9.840000 42.608450 20.000000
C 11.070000 43.318591 20.000000
C 8.610000 44.738872 20.000000
C 9.840000 45.449013 20.000000
C 7.380000 46.869295 20.000000
C 8.610000 47.579436 20.000000
C 6.150000 48.999717 20.000000
C 7.380000 49.709858 20.000000
C 4.920000 51.130140 20.000000
C 6.150000 51.840281 20.000000
C 36.900000 0.000000 20.000000
C 38.130000 0.710141 20.000000
C 35.670000 2.130422 20.000000
C 36.900000 2.840563 20.000000
C 34.440000 4.260845 20.000000
C 35.670000 4.970986 20.000000
C 33.210000 6.391267 20.000000
C 34.440000 7.101408 20.000000
C 31.980000 8.521690 20.000000
C 33.210000 9.231831 20.000000
C 30.750000 10.652112 20.000000
C 31.980000 11.362253 20.000000
C 29.520000 12.782535 20.000000
C 30.750000 13.492676 20.000000
C 28.290000 14.912957 20.000000
C 29.520000 15.623098 20.000000
C 27.060000 17.043380 20.000000
C 28.290000 17.753521 20.000000
C 25.830000 19.173802 20.000000
C 27.060000 19.883943 20.000000
C 24.600000 21.304225 20.000000
C 25.830000 22.014366 20.000000
C 23.370000 23.434647 20.000000
C 24.600000 24.144788 20.000000
C 22.140000 25.565070 20.000000
C 23.370000 26.275211 20.000000
C 20.910000 27.695492 20.000000
C 22.140000 28.405633 20.000000
C 19.680000 29.825915 20.000000
C 20.910000 30.536056 20.000000
C 18.450000 31.956337 20.000000
C 19.680000 32.666478 20.000000
C 17.220000 34.086760 20.000000
C 18.450000 34.796901 20.000000
C 15.990000 36.217182 20.000000
C 17.220000 36.927323 20.000000
C 14.760000 38.347605 20.000000
C 15.990000 39.057746 20.000000
C 13.530000 40.478027 20.000000
C 14.760000 41.188168 20.000000
C 12.300000 42.608450 20.000000
C 13.530000 43.318591 20.000000
C 11.070000 44.738872 20.000000
C 12.300000 45.449013 20.000000
C 9.840000 46.869295 20.000000
C 11.070000 47.579436 20.000000
C 8.610000 48.999717 20.000000
C 9.840000 49.709858 20.000000
C 7.380000 51.130140 20.000000
C 8.610000 51.840281 20.000000
C 39.360000 0.000000 20.000000
C 40.590000 0.710141 20.000000
C 38.130000 2.130422 20.000000
C 39.360000 2.840563 20.000000
C 36.900000 4.260845 20.000000
C 38.130000 4.970986 20.000000
C 35.670000 6.391267 20.000000
C 36.900000 7.101408 20.000000
C 34.440000 8.521690 20.000000
C 35.670000 9.231831 20.000000
C 33.210000 10.652112 20.000000
C 34.440000 11.362253 20.000000
C 31.980000 12.782535 20.000000
C 33.210000 13.492676 20.000000
C 30.750000 14.912957 20.000000
C 31.980000 15.623098 20.000000
C 29.520000 17.043380 20.000000
C 30.750000 17.753521 20.000000
C 28.290000 19.173802 20.000000
C 29.520000 19.883943 20.000000
C 27.060000 21.304225 20.000000
C 28.290000 22.014366 20.000000
C 25.830000 23.434647 20.000000
C 27.060000 24.144788 20.000000
C 24.600000 25.565070 20.000000
C 25.830000 26.275211 20.000000
C 23.370000 27.695492 20.000000
C 24.600000 28.405633 20.000000
C 22.140000 29.825915 20.000000
C 23.370000 30.536056 20.000000
C 20.910000 31.956337 20.000000
C 22.140000 32.666478 20.000000
C 19.680000 34.086760 20.000000
C 20.910000 34.796901 20.000000
C 18.450000 36.217182 20.000000
C 19.680000 36.927323 20.000000
C 17.220000 38.347605 20.000000
C 18.450000 39.057746 20.000000
C 15.990000 40.478027 20.000000
C 17.220000 41.188168 20.000000
C 14.760000 42.608450 20.000000
C 15.990000 43.318591 20.000000
C 13.530000 44.738872 20.000000
C 14.760000 45.449013 20.000000
C 12.300000 46.869295 20.000000
C 13.530000 47.579436 20.000000
C 11.070000 48.999717 20.000000
C 12.300000 49.709858 20.000000
C 9.840000 51.130140 20.000000
C 11.070000 51.840281 20.000000
C 41.820000 0.000000 20.000000
C 43.050000 0.710141 20.000000
C 40.590000 2.130422 20.000000
C 41.820000 2.840563 20.000000
C 39.360000 4.260845 20.000000
C 40.590000 4.970986 20.000000
C 38.130000 6.391267 20.000000
C 39.360000 7.101408 20.000000
C 36.900000 8.521690 20.000000
C 38.130000 9.231831 20.000000
C 35.670000 10.652112 20.000000
C 36.900000 11.362253 20.000000
C 34.440000 12.782535 20.000000
C 35.670000 13.492676 20.000000
C 33.210000 14.912957 20.000000
C 34.440000 15.623098 20.000000
C 31.980000 17.043380 20.000000
C 33.210000 17.753521 20.000000
C 30.750000 19.173802 20.000000
C 31.980000 19.883943 20.000000
C 29.520000 21.304225 20.000000
C 30.750000 22.014366 20.000000
C 28.290000 23.434647 20.000000
C 29.520000 24.144788 20.000000
C 27.060000 25.565070 20.000000
C 28.290000 26.275211 20.000000
C 25.830000 27.695492 20.000000
C 27.060000 28.405633 20.000000
C 24.600000 29.825915 20.000000
C 25.830000 30.536056 20.000000
C 23.370000 31.956337 20.000000
C 24.600000 32.666478 20.000000
C 22.140000 34.086760 20.000000
C 23.370000 34.796901 20.000000
C 20.910000 36.217182 20.000000
C 22.140000 36.927323 20.000000
C 19.680000 38.347605 20.000000
C 20.910000 39.057746 20.000000
C 18.450000 40.478027 20.000000
C 19.680000 41.188168 20.000000
C 17.220000 42.608450 20.000000
C 18.450000 43.318591 20.000000
C 15.990000 44.738872 20.000000
C 17.220000 45.449013 20.000000
C 14.760000 46.869295 20.000000
C 15.990000 47.579436 20.000000
C 13.530000 48.999717 20.000000
C 14.760000 49.709858 20.000000
C 12.300000 51.130140 20.000000
C 13.530000 51.840281 20.000000
C 44.280000 0.000000 20.000000
C 45.510000 0.710141 20.000000
C 43.050000 2.130422 20.000000
C 44.280000 2.840563 20.000000
C 41.820000 4.260845 20.000000
C 43.050000 4.970986 20.000000
C 40.590000 6.391267 20.000000
C 41.820000 7.101408 20.000000
C 39.360000 8.521690 20.000000
C 40.590000 9.231831 20.000000
C 38.130000 10.652112 20.000000
C 39.360000 11.362253 20.000000
C 36.900000 12.782535 20.000000
C 38.130000 13.492676 20.000000
C 35.670000 14.912957 20.000000
C 36.900000 15.623098 20.000000
C 34.440000 17.043380 20.000000
C 35.670000 17.753521 20.000000
C 33.210000 19.173802 20.000000
C 34.440000 19.883943 20.000000
C 31.980000 21.304225 20.000000
C 33.210000 22.014366 20.000000
C 30.750000 23.434647 20.000000
C 31.980000 24.144788 20.000000
C 29.520000 25.565070 20.000000
C 30.750000 26.275211 20.000000
C 28.290000 27.695492 20.000000
C 29.520000 28.405633 20.000000
C 27.060000 29.825915 20.000000
C 28.290000 30.536056 20.000000
C 25.830000 31.956337 20.000000
C 27.060000 32.666478 20.000000
C 24.600000 34.086760 20.000000
C 25.830000 34.796901 20.000000
C 23.370000 36.217182 20.000000
C 24.600000 36.927323 20.000000
C 22.140000 38.347605 20.000000
C 23.370000 39.057746 20.000000
C 20.910000 40.478027 20.000000
C 22.140000 41.188168 20.000000
C 19.680000 42.608450 20.000000
C 20.910000 43.318591 20.000000
C 18.450000 44.738872 20.000000
C 19.680000 45.449013 20.000000
C 17.220000 46.869295 20.000000
C 18.450000 47.579436 20.000000
C 15.990000 48.999717 20.000000
C 17.220000 49.709858 20.000000
C 14.760000 51.130140 20.000000
C 15.990000 51.840281 20.000000
C 46.740000 0.000000 20.000000
C 47.970000 0.710141 20.000000
C 45.510000 2.130422 20.000000
C 46.740000 2.840563 20.000000
C 44.280000 4.260845 20.000000
C 45.510000 4.970986 20.000000
C 43.050000 6.391267 20.000000
C 44.280000 7.101408 20.000000
C 41.820000 8.521690 20.000000
C 43.050000 9.231831 20.000000
C 40.590000 10.652112 20.000000
C 41.820000 11.362253 20.000000
C 39.360000 12.782535 20.000000
C 40.590000 13.492676 20.000000
C 38.130000 14.912957 20.000000
C 39.360000 15.623098 20.000000
C 36.900000 17.043380 20.000000
C 38.130000 17.753521 20.000000
C 35.670000 19.173802 20.000000
C 36.900000 19.883943 20.000000
C 34.440000 21.304225 20.000000
C 35.670000 22.014366 20.000000
C 33.210000 23.434647 20.000000
C 34.440000 24.144788 20.000000
C 31.980000 25.565070 20.000000
C 33.210000 26.275211 20.000000
C 30.750000 27.695492 20.000000
C 31.980000 28.405633 20.000000
C 29.520000 29.825915 20.000000
C 30.750000 30.536056 20.000000
C 28.290000 31.956337 20.000000
C 29.520000 32.666478 20.000000
C 27.060000 34.086760 20.000000
C 28.290000 34.796901 20.000000
C 25.830000 36.217182 20.000000
C 27.060000 36.927323 20.000000
C 24.600000 38.347605 20.000000
C 25.830000 39.057746 20.000000
C 23.370000 40.478027 20.000000
C 24.600000 41.188168 20.000000
C 22.140000 42.608450 20.000000
C 23.370000 43.318591 20.000000
C 20.910000 44.738872 20.000000
C 22.140000 45.449013 20.000000
C 19.680000 46.869295 20.000000
C 20.910000 47.579436 20.000000
C 18.450000 48.999717 20.000000
C 19.680000 49.709858 20.000000
C 17.220000 51.130140 20.000000
C 18.450000 51.840281 20.000000
C 49.200000 0.000000 20.000000
C 50.430000 0.710141 20.000000
C 47.970000 2.130422 20.000000
C 49.200000 2.840563 20.000000
C 46.740000 4.260845 20.000000
C 47.970000 4.970986 20.000000
C 45.510000 6.391267 20.000000
C 46.740000 7.101408 20.000000
C 44.280000 8.521690 20.000000
C 45.510000 9.231831 20.000000
C 43.050000 10.652112 20.000000
C 44.280000 11.362253 20.000000
C 41.820000 12.782535 20.000000
C 43.050000 13.492676 20.000000
C 40.590000 14.912957 20.000000
C 41.820000 15.623098 20.000000
C 39.360000 17.043380 20.000000
C 40.590000 17.753521 20.000000
C 38.130000 19.173802 20.000000
C 39.360000 19.883943 20.000000
C 36.900000 21.304225 20.000000
C 38.130000 22.014366 20.000000
C 35.670000 23.434647 20.000000
C 36.900000 24.144788 20.000000
C 34.440000 25.565070 20.000000
C 35.670000 26.275211 20.000000
C 33.210000 27.695492 20.000000
C 34.440000 28.405633 20.000000
C 31.980000 29.825915 20.000000
C 33.210000 30.536056 20.000000
C 30.750000 31.956337 20.000000
C 31.980000 32.666478 20.000000
C 29.520000 34.086760 20.000000
C 30.750000 34.796901 20.000000
C 28.290000 36.217182 20.000000
C 29.520000 36.927323 20.000000
C 27.060000 38.347605 20.000000
C 28.290000 39.057746 20.000000
C 25.830000 40.478027 20.000000
C 27.060000 41.188168 20.000000
C 24.600000 42.608450 20.000000
C 25.830000 43.318591 20.000000
C 23.370000 44.738872 20.000000
C 24.600000 45.449013 20.000000
C 22.140000 46.869295 20.000000
C 23.370000 47.579436 20.000000
C 20.910000 48.999717 20.000000
C 22.140000 49.709858 20.000000
C 19.680000 51.130140 20.000000
C 20.910000 51.840281 20.000000
C 51.660000 0.000000 20.000000
C 52.890000 0.710141 20.000000
C 50.430000 2.130422 20.000000
C 51.660000 2.840563 20.000000
C 49.200000 4.260845 20.000000
C 50.430000 4.970986 20.000000
C 47.970000 6.391267 20.000000
C 49.200000 7.101408 20.000000
C 46.740000 8.521690 20.000000
C 47.970000 9.231831 20.000000
C 45.510000 10.652112 20.000000
C 46.740000 11.362253 20.000000
C 44.280000 12.782535 20.000000
C 45.510000 13.492676 20.000000
C 43.050000 14.912957 20.000000
C 44.280000 15.623098 20.000000
C 41.820000 17.043380 20.000000
C 43.050000 17.753521 20.000000
C 40.590000 19.173802 20.000000
C 41.820000 19.883943 20.000000
C 39.360000 21.304225 20.000000
C 40.590000 22.014366 20.000000
C 38.130000 23.434647 20.000000
C 39.360000 24.144788 20.000000
C 36.900000 25.565070 20.000000
C 38.130000 26.275211 20.000000
C 35.670000 27.695492 20.000000
C 36.900000 28.405633 20.000000
C 34.440000 29.825915 20.000000
C 35.670000 30.536056 20.000000
C 33.210000 31.956337 20.000000
C 34.440000 32.666478 20.000000
C 31.980000 34.086760 20.000000
C 33.210000 34.796901 20.000000
C 30.750000 36.217182 20.000000
C 31.980000 36.927323 20.000000
C 29.520000 38.347605 20.000000
C 30.750000 39.057746 20.000000
C 28.290000 40.478027 20.000000
C 29.520000 41.188168 20.000000
C 27.060000 42.608450 20.000000
C 28.290000 43.318591 20.000000
C 25.830000 44.738872 20.000000
C 27.060000 45.449013 20.000000
C 24.600000 46.869295 20.000000
C 25.830000 47.579436 20.000000
C 23.370000 48.999717 20.000000
C 24.600000 49.709858 20.000000
C 22.140000 51.130140 20.000000
C 23.370000 51.840281 20.000000
C 54.120000 0.000000 20.000000
C 55.350000 0.710141 20.000000
C 52.890000 2.130422 20.000000
C 54.120000 2.840563 20.000000
C 51.660000 4.260845 20.000000
C 52.890000 4.970986 20.000000
C 50.430000 6.391267 20.000000
C 51.660000 7.101408 20.000000
C 49.200000 8.521690 20.000000
C 50.430000 9.231831 20.000000
C 47.970000 10.652112 20.000000
C 49.200000 11.362253 20.000000
C 46.740000 12.782535 20.000000
C 47.970000 13.492676 20.000000
C 45.510000 14.912957 20.000000
C 46.740000 15.623098 20.000000
C 44.280000 17.043380 20.000000
C 45.510000 17.753521 20.000000
C 43.050000 19.173802 20.000000
C 44.280000 19.883943 20.000000
C 41.820000 21.304225 20.000000
C 43.050000 22.014366 20.000000
C 40.590000 23.434647 20.000000
C 41.820000 24.144788 20.000000
C 39.360000 25.565070 20.000000
C 40.590000 26.275211 20.000000
C 38.130000 27.695492 20.000000
C 39.360000 28.405633 20.000000
C 36.900000 29.825915 20.000000
C 38.130000 30.536056 20.000000
C 35.670000 31.956337 20.000000
C 36.900000 32.666478 20.000000
C 34.440000 34.086760 20.000000
C 35.670000 34.796901 20.000000
C 33.210000 36.217182 20.000000
C 34.440000 36.927323 20.000000
C 31.980000 38.347605 20.000000
C 33.210000 39.057746 20.000000
C 30.750000 40.478027 20.000000
C 31.980000 41.188168 20.000000
C 29.520000 42.608450 20.000000
C 30.750000 43.318591 20.000000
C 28.290000 44.738872 20.000000
C 29.520000 45.449013 20.000000
C 27.060000 46.869295 20.000000
C 28.290000 47.579436 20.000000
C 25.830000 48.999717 20.000000
C 27.060000 49.709858 20.000000
C 24.600000 51.130140 20.000000
C 25.830000 51.840281 20.000000
C 56.580000 0.000000 20.000000
C 57.810000 0.710141 20.000000
C 55.350000 2.130422 20.000000
C 56.580000 2.840563 20.000000
C 54.120000 4.260845 20.000000
C 55.350000 4.970986 20.000000
C 52.890000 6.391267 20.000000
C 54.120000 7.101408 20.000000
C 51.660000 8.521690 20.000000
C 52.890000 9.231831 20.000000
C 50.430000 10.652112 20.000000
C 51.660000 11.362253 20.000000
C 49.200000 12.782535 20.000000
C 50.430000 13.492676 20.000000
C 47.970000 14.912957 20.000000
C 49.200000 15.623098 20.000000
C 46.740000 17.043380 20.000000
C 47.970000 17.753521 20.000000
C 45.510000 19.173802 20.000000
C 46.740000 19.883943 20.000000
C 44.280000 21.304225 20.000000
C 45.510000 22.014366 20.000000
C 43.050000 23.434647 20.000000
C 44.280000 24.144788 20.000000
C 41.820000 25.565070 20.000000
C 43.050000 26.275211 20.000000
C 40.590000 27.695492 20.000000
C 41.820000 28.405633 20.000000
C 39.360000 29.825915 20.000000
C 40.590000 30.536056 20.000000
C 38.130000 31.956337 20.000000
C 39.360000 32.666478 20.000000
C 36.900000 34.086760 20.000000
C 38.130000 34.796901 20.000000
C 35.670000 36.217182 20.000000
C 36.900000 36.927323 20.000000
C 34.440000 38.347605 20.000000
C 35.670000 39.057746 20.000000
C 33.210000 40.478027 20.000000
C 34.440000 41.188168 20.000000
C 31.980000 42.608450 20.000000
C 33.210000 43.318591 20.000000
C 30.750000 44.738872 20.000000
C 31.980000 45.449013 20.000000
C 29.520000 46.869295 20.000000
C 30.750000 47.579436 20.000000
C 28.290000 48.999717 20.000000
C 29.520000 49.709858 20.000000
C 27.060000 51.130140 20.000000
C 28.290000 51.840281 20.000000
C 59.040000 0.000000 20.000000
C 60.270000 0.710141 20.000000
C 57.810000 2.130422 20.000000
C 59.040000 2.840563 20.000000
C 56.580000 4.260845 20.000000
C 57.810000 4.970986 20.000000
C 55.350000 6.391267 20.000000
C 56.580000 7.101408 20.000000
C 54.120000 8.521690 20.000000
C 55.350000 9.231831 20.000000
C 52.890000 10.652112 20.000000
C 54.120000 11.362253 20.000000
C 51.660000 12.782535 20.000000
C 52.890000 13.492676 20.000000
C 50.430000 14.912957 20.000000
C 51.660000 15.623098 20.000000
C 49.200000 17.043380 20.000000
C 50.430000 17.753521 20.000000
C 47.970000 19.173802 20.000000
C 49.200000 19.883943 20.000000
C 46.740000 21.304225 20.000000
C 47.970000 22.014366 20.000000
C 45.510000 23.434647 20.000000
C 46.740000 24.144788 20.000000
C 44.280000 25.565070 20.000000
C 45.510000 26.275211 20.000000
C 43.050000 27.695492 20.000000
C 44.280000 28.405633 20.000000
C 41.820000 29.825915 20.000000
C 43.050000 30.536056 20.000000
C 40.590000 31.956337 20.000000
C 41.820000 32.666478 20.000000
C 39.360000 34.086760 20.000000
C 40.590000 34.796901 20.000000
C 38.130000 36.217182 20.000000
C 39.360000 36.927323 20.000000
C 36.900000 38.347605 20.000000
C 38.130000 39.057746 20.000000
C 35.670000 40.478027 20.000000
C 36.900000 41.188168 20.000000
C 34.440000 42.608450 20.000000
C 35.670000 43.318591 20.000000
C 33.210000 44.738872 20.000000
C 34.440000 45.449013 20.000000
C 31.980000 46.869295 20.000000
C 33.210000 47.579436 20.000000
C 30.750000 48.999717 20.000000
C 31.980000 49.709858 20.000000
C 29.520000 51.130140 20.000000
C 30.750000 51.840281 20.000000
X 0.000000 0.000000 20.650000
X 1.230000 0.710141 20.650000
X -1.230000 2.130422 20.650000
X 0.000000 2.840563 20.650000
X -2.460000 4.260845 20.650000
X -1.230000 4.970986 20.650000
X -3.690000 6.391267 20.650000
X -2.460000 7.101408 20.650000
X -4.920000 8.521690 20.650000
X -3.690000 9.231831 20.650000
X -6.150000 10.652112 20.650000
X -4.920000 11.362253 20.650000
X -7.380000 12.782535 20.650000
X -6.150000 13.492676 20.650000
X -8.610000 14.912957 20.650000
X -7.380000 15.623098 20.650000
X -9.840000 17.043380 20.650000
X -8.610000 17.753521 20.650000
X -11.070000 19.173802 20.650000
X -9.840000 19.883943 20.650000
X -12.300000 21.304225 20.650000
X -11.070000 22.014366 20.650000
X -13.530000 23.434647 20.650000
X -12.300000 24.144788 20.650000
X -14.760000 25.565070 20.650000
X -13.530000 26.275211 20.650000
X -15.990000 27.695492 20.650000
X -14.760000 28.405633 20.650000
X -17.220000 29.825915 20.650000
X -15.990000 30.536056 20.650000
X -18.450000 31.956337 20.650000
X -17.220000 32.666478 20.650000
X -19.680000 34.086760 20.650000
X -18.450000 34.796901 20.650000
X -20.910000 36.217182 20.650000
X -19.680000 36.927323 20.650000
X -22.140000 38.347605 20.650000
X -20.910000 39.057746 20.650000
X -23.370000 40.478027 20.650000
X -22.140000 41.188168 20.650000
X -24.600000 42.608450 20.650000
X -23.370000 43.318591 20.650000
X -25.830000 44.738872 20.650000
X -24.600000 45.449013 20.650000
X -27.060000 46.869295 20.650000
X -25.830000 47.579436 20.650000
X -28.290000 48.999717 20.650000
X -27.060000 49.709858 20.650000
X -29.520000 51.130140 20.650000
X -28.290000 51.840281 20.650000
X 2.460000 0.000000 20.650000
X 3.690000 0.710141 20.650000
X 1.230000 2.130422 20.650000
X 2.460000 2.840563 20.650000
X 0.000000 4.260845 20.650000
X 1.230000 4.970986 20.650000
X -1.230000 6.391267 20.650000
X 0.000000 7.101408 20.650000
X -2.460000 8.521690 20.650000
X -1.230000 9.231831 20.650000
X -3.690000 10.652112 20.650000
X -2.460000 11.362253 20.650000
X -4.920000 12.782535 20.650000
X -3.690000 13.492676 20.650000
X -6.150000 14.912957 20.650000
X -4.920000 15.623098 20.650000
X -7.380000 17.043380 20.650000
X -6.150000 17.753521 20.650000
X -8.610000 19.173802 20.650000
X -7.380000 19.883943 20.650000
X -9.840000 21.304225 20.650000
X -8.610000 22.014366 20.650000
X -11.070000 23.434647 20.650000
X -9.840000 24.144788 20.650000
X -12.300000 25.565070 20.650000
X -11.070000 26.275211 20.650000
X -13.530000 27.695492 20.650000
X -12.300000 28.405633 20.650000
X -14.760000 29.825915 20.650000
X -13.530000 30.536056 20.650000
X -15.990000 31.956337 20.650000
X -14.760000 32.666478 20.650000
X -17.220000 34.086760 20.650000
X -15.990000 34.796901 20.650000
X -18.450000 36.217182 20.650000
X -17.220000 36.927323 20.650000
X -19.680000 38.347605 20.650000
X -18.450000 39.057746 20.650000
X -20.910000 40.478027 20.650000
X -19.680000 41.188168 20.650000
X -22.140000 42.608450 20.650000
X -20.910000 43.318591 20.650000
X -23.370000 44.738872 20.650000
X -22.140000 45.449013 20.650000
X -24.600000 46.869295 20.650000
X -23.370000 47.579436 20.650000
X -25.830000 48.999717 20.650000
X -24.600000 49.709858 20.650000
X -27.060000 51.130140 20.650000
X -25.830000 51.840281 20.650000
X 4.920000 0.000000 20.650000
X 6.150000 0.710141 20.650000
X 3.690000 2.130422 20.650000
X 4.920000 2.840563 20.650000
X 2.460000 4.260845 20.650000
X 3.690000 4.970986 20.650000
X 1.230000 6.391267 20.650000
X 2.460000 7.101408 20.650000
X 0.000000 8.521690 20.650000
X 1.230000 9.231831 20.650000
X -1.230000 10.652112 20.650000
X -0.000000 11.362253 20.650000
X -2.460000 12.782535 20.650000
X -1.230000 13.492676 20.650000
X -3.690000 14.912957 20.650000
X -2.460000 15.623098 20.650000
X -4.920000 17.043380 20.650000
X -3.690000 17.753521 20.650000
X -6.150000 19.173802 20.650000
X -4.920000 19.883943 20.650000
X -7.380000 21.304225 20.650000
X -6.150000 22.014366 20.650000
X -8.610000 23.434647 20.650000
X -7.380000 24.144788 20.650000
X -9.840000 25.565070 20.650000
X -8.610000 26.275211 20.650000
X -11.070000 27.695492 20.650000
X -9.840000 28.405633 20.650000
X -12.300000 29.825915 20.650000
X -11.070000 30.536056 20.650000
X -13.530000 31.956337 20.650000
X -12.300000 32.666478 20.650000
X -14.760000 34.086760 20.650000
X -13.530000 34.796901 20.650000
X -15.990000 36.217182 20.650000
X -14.760000 36.927323 20.650000
X -17.220000 38.347605 20.650000
X -15.990000 39.057746 20.650000
X -18.450000 40.478027 20.650000
X -17.220000 41.188168 20.650000
X -19.680000 42.608450 20.650000
X -18.450000 43.318591 20.650000
X -20.910000 44.738872 20.650000
X -19.680000 45.449013 20.650000
X -22.140000 46.869295 20.650000
X -20.910000 47.579436 20.650000
X -23.370000 48.999717 20.650000
X -22.140000 49.709858 20.650000
X -24.600000 51.130140 20.650000
X -23.370000 51.840281 20.650000
X 7.380000 0.000000 20.650000
X 8.610000 0.710141 20.650000
X 6.150000 2.130422 20.650000
X 7.380000 2.840563 20.650000
X 4.920000 4.260845 20.650000
X 6.150000 4.970986 20.650000
X 3.690000 6.391267 20.650000
X 4.920000 7.101408 20.650000
X 2.460000 8.521690 20.650000
X 3.690000 9.231831 20.650000
X 1.230000 10.652112 20.650000
X 2.460000 11.362253 20.650000
X 0.000000 12.782535 20.650000
X 1.230000 13.492676 20.650000
X -1.230000 14.912957 20.650000
X 0.000000 15.623098 20.650000
X -2.460000 17.043380 20.650000
X -1.230000 17.753521 20.650000
X -3.690000 19.173802 20.650000
X -2.460000 19.883943 20.650000
X -4.920000 21.304225 20.650000
X -3.690000 22.014366 20.650000
X -6.150000 23.434647 20.650000
X -4.920000 24.144788 20.650000
X -7.380000 25.565070 20.650000
X -6.150000 26.275211 20.650000
X -8.610000 27.695492 20.650000
X -7.380000 28.405633 20.650000
X -9.840000 29.825915 20.650000
X -8.610000 30.536056 20.650000
X -11.070000 31.956337 20.650000
X -9.840000 32.666478 20.650000
X -12.300000 34.086760 20.650000
X -11.070000 34.796901 20.650000
X -13.530000 36.217182 20.650000
X -12.300000 36.927323 20.650000
X -14.760000 38.347605 20.650000
X -13.530000 39.057746 20.650000
X -15.990000 40.478027 20.650000
X -14.760000 41.188168 20.650000
X -17.220000 42.608450 20.650000
X -15.990000 43.318591 20.650000
X -18.450000 44.738872 20.650000
X -17.220000 45.449013 20.650000
X -19.680000 46.869295 20.650000
X -18.450000 47.579436 20.650000
X -20.910000 48.999717 20.650000
X -19.680000 49.709858 20.650000
X -22.140000 51.130140 20.650000
X -20.910000 51.840281 20.650000
X 9.840000 0.000000 20.650000
X 11.070000 0.710141 20.650000
X 8.610000 2.130422 20.650000
X 9.840000 2.840563 20.650000
X 7.380000 4.260845 20.650000
X 8.610000 4.970986 20.650000
X 6.150000 6.391267 20.650000
X 7.380000 7.101408 20.650000
X 4.920000 8.521690 20.650000
X 6.150000 9.231831 20.650000
X 3.690000 10.652112 20.650000
X 4.920000 11.362253 20.650000
X 2.460000 12.782535 20.650000
X 3.690000 13.492676 20.650000
X 1.230000 14.912957 20.650000
X 2.460000 15.623098 20.650000
X 0.000000 17.043380 20.650000
X 1.230000 17.753521 20.650000
X -1.230000 19.173802 20.650000
X -0.000000 19.883943 20.650000
X -2.460000 21.304225 20.650000
X -1.230000 22.014366 20.650000
X -3.690000 23.434647 20.650000
X -2.460000 24.144788 20.650000
X -4.920000 25.565070 20.650000
X -3.690000 26.275211 20.650000
X -6.150000 27.695492 20.650000
X -4.920000 28.405633 20.650000
X -7.380000 29.825915 20.650000
X -6.150000 30.536056 20.650000
X -8.610000 31.956337 20.650000
X -7.380000 32.666478 20.650000
X -9.840000 34.086760 20.650000
X -8.610000 34.796901 20.650000
X -11.070000 36.217182 20.650000
X -9.840000 36.927323 20.650000
X -12.300000 38.347605 20.650000
X -11.070000 39.057746 20.650000
X -13.530000 40.478027 20.650000
X -12.300000 41.188168 20.650000
X -14.760000 42.608450 20.650000
X -13.530000 43.318591 20.650000
X -15.990000 44.738872 20.650000
X -14.760000 45.449013 20.650000
X -17.220000 46.869295 20.650000
X -15.990000 47.579436 20.650000
X -18.450000 48.999717 20.650000
X -17.220000 49.709858 20.650000
X -19.680000 51.130140 20.650000
X -18.450000 51.840281 20.650000
X 12.300000 0.000000 20.650000
X 13.530000 0.710141 20.650000
X 11.070000 2.130422 20.650000
X 12.300000 2.840563 20.650000
X 9.840000 4.260845 20.650000
X 11.070000 4.970986 20.650000
X 8.610000 6.391267 20.650000
X 9.840000 7.101408 20.650000
X 7.380000 8.521690 20.650000
X 8.610000 9.231831 20.650000
X 6.150000 10.652112 20.650000
X 7.380000 11.362253 20.650000
X 4.920000 12.782535 20.650000
X 6.150000 13.492676 20.650000
X 3.690000 14.912957 20.650000
X 4.920000 15.623098 20.650000
X 2.460000 17.043380 20.650000
X 3.690000 17.753521 20.650000
X 1.230000 19.173802 20.650000
X 2.460000 19.883943 20.650000
X 0.000000 21.304225 20.650000
X 1.230000 22.014366 20.650000
X -1.230000 23.434647 20.650000
X 0.000000 24.144788 20.650000
X -2.460000 25.565070 20.650000
X -1.230000 26.275211 20.650000
X -3.690000 27.695492 20.650000
X -2.460000 28.405633 20.650000
X -4.920000 29.825915 20.650000
X -3.690000 30.536056 20.650000
X -6.150000 31.956337 20.650000
X -4.920000 32.666478 20.650000
X -7.380000 34.086760 20.650000
X -6.150000 34.796901 20.650000
X -8.610000 36.217182 20.650000
X -7.380000 36.927323 20.650000
X -9.840000 38.347605 20.650000
X -8.610000 39.057746 20.650000
X -11.070000 40.478027 20.650000
X -9.840000 41.188168 20.650000
X -12.300000 42.608450 20.650000
X -11.070000 43.318591 20.650000
X -13.530000 44.738872 20.650000
X -12.300000 45.449013 20.650000
X -14.760000 46.869295 20.650000
X -13.530000 47.579436 20.650000
X -15.990000 48.999717 20.650000
X -14.760000 49.709858 20.650000
X -17.220000 51.130140 20.650000
X -15.990000 51.840281 20.650000
X 14.760000 0.000000 20.650000
X 15.990000 0.710141 20.650000
X 13.530000 2.130422 20.650000
X 14.760000 2.840563 20.650000
X 12.300000 4.260845 20.650000
X 13.530000 4.970986 20.650000
X 11.070000 6.391267 20.650000
X 12.300000 7.101408 20.650000
X 9.840000 8.521690 20.650000
X 11.070000 9.231831 20.650000
X 8.610000 10.652112 20.650000
X 9.840000 11.362253 20.650000
X 7.380000 12.782535 20.650000
X 8.610000 13.492676 20.650000
X 6.150000 14.912957 20.650000
X 7.380000 15.623098 20.650000
X 4.920000 17.043380 20.650000
X 6.150000 17.753521 20.650000
X 3.690000 19.173802 20.650000
X 4.920000 19.883943 20.650000
X 2.460000 21.304225 20.650000
X 3.690000 22.014366 20.650000
X 1.230000 23.434647 20.650000
X 2.460000 24.144788 20.650000
X 0.000000 25.565070 20.650000
X 1.230000 26.275211 20.650000
X -1.230000 27.695492 20.650000
X -0.000000 28.405633 20.650000
X -2.460000 29.825915 20.650000
X -1.230000 30.536056 20.650000
X -3.690000 31.956337 20.650000
X -2.460000 32.666478 20.650000
X -4.920000 34.086760 20.650000
X -3.690000 34.796901 20.650000
X -6.150000 36.217182 20.650000
X -4.920000 36.927323 20.650000
X -7.380000 38.347605 20.650000
X -6.150000 39.057746 20.650000
X -8.610000 40.478027 20.650000
X -7.380000 41.188168 20.650000
X -9.840000 42.608450 20.650000
X -8.610000 43.318591 20.650000
X -11.070000 44.738872 20.650000
X -9.840000 45.449013 20.650000
X -12.300000 46.869295 20.650000
X -11.070000 47.579436 20.650000
X -13.530000 48.999717 20.650000
X -12.300000 49.709858 20.650000
X -14.760000 51.130140 20.650000
X -13.530000 51.840281 20.650000
X 17.220000 0.000000 20.650000
X 18.450000 0.710141 20.650000
X 15.990000 2.130422 20.650000
X 17.220000 2.840563 20.650000
X 14.760000 4.260845 20.650000
X 15.990000 4.970986 20.650000
X 13.530000 6.391267 20.650000
X 14.760000 7.101408 20.650000
X 12.300000 8.521690 20.650000
X 13.530000 9.231831 20.650000
X 11.070000 10.652112 20.650000
X 12.300000 11.362253 20.650000
X 9.840000 12.782535 20.650000
X 11.070000 13.492676 20.650000
X 8.610000 14.912957 20.650000
X 9.840000 15.623098 20.650000
X 7.380000 17.043380 20.650000
X 8.610000 17.753521 20.650000
X 6.150000 19.173802 20.650000
X 7.380000 19.883943 20.650000
X 4.920000 21.304225 20.650000
X 6.150000 22.014366 20.650000
X 3.690000 23.434647 20.650000
X 4.920000 24.144788 20.650000
X 2.460000 25.565070 20.650000
X 3.690000 26.275211 20.650000
X 1.230000 27.695492 20.650000
X 2.460000 28.405633 20.650000
X 0.000000 29.825915 20.650000
X 1.230000 30.536056 20.650000
X -1.230000 31.956337 20.650000
X -0.000000 32.666478 20.650000
X -2.460000 34.086760 20.650000
X -1.230000 34.796901 20.650000
X -3.690000 36.217182 20.650000
X -2.460000 36.927323 20.650000
X -4.920000 38.347605 20.650000
X -3.690000 39.057746 20.650000
X -6.150000 40.478027 20.650000
X -4.920000 41.188168 20.650000
X -7.380000 42.608450 20.650000
X -6.150000 43.318591 20.650000
X -8.610000 44.738872 20.650000
X -7.380000 45.449013 20.650000
X -9.840000 46.869295 20.650000
X -8.610000 47.579436 20.650000
X -11.070000 48.999717 20.650000
X -9.840000 49.709858 20.650000
X -12.300000 51.130140 20.650000
X -11.070000 51.840281 20.650000
X 19.680000 0.000000 20.650000
X 20.910000 0.710141 20.650000
X 18.450000 2.130422 20.650000
X 19.680000 2.840563 20.650000
X 17.220000 4.260845 20.650000
X 18.450000 4.970986 20.650000
X 15.990000 6.391267 20.650000
X 17.220000 7.101408 20.650000
X 14.760000 8.521690 20.650000
X 15.990000 9.231831 20.650000
X 13.530000 10.652112 20.650000
X 14.760000 11.362253 20.650000
X 12.300000 12.782535 20.650000
X 13.530000 13.492676 20.650000
X 11.070000 14.912957 20.650000
X 12.300000 15.623098 20.650000
X 9.840000 17.043380 20.650000
X 11.070000 17.753521 20.650000
X 8.610000 19.173802 20.650000
X 9.840000 19.883943 20.650000
X 7.380000 21.304225 20.650000
X 8.610000 22.014366 20.650000
X 6.150000 23.434647 20.650000
X 7.380000 24.144788 20.650000
X 4.920000 25.565070 20.650000
X 6.150000 26.275211 20.650000
X 3.690000 27.695492 20.650000
X 4.920000 28.405633 20.650000
X 2.460000 29.825915 20.650000
X 3.690000 30.536056 20.650000
X 1.230000 31.956337 20.650000
X 2.460000 32.666478 20.650000
X 0.000000 34.086760 20.650000
X 1.230000 34.796901 20.650000
X -1.230000 36.217182 20.650000
X -0.000000 36.927323 20.650000
X -2.460000 38.347605 20.650000
X -1.230000 39.057746 20.650000
X -3.690000 40.478027 20.650000
X -2.460000 41.188168 20.650000
X -4.920000 42.608450 20.650000
X -3.690000 43.318591 20.650000
X -6.150000 44.738872 20.650000
X -4.920000 45.449013 20.650000
X -7.380000 46.869295 20.650000
X -6.150000 47.579436 20.650000
X -8.610000 48.999717 20.650000
X -7.380000 49.709858 20.650000
X -9.840000 51.130140 20.650000
X -8.610000 51.840281 20.650000
X 22.140000 0.000000 20.650000
X 23.370000 0.710141 20.650000
X 20.910000 2.130422 20.650000
X 22.140000 2.840563 20.650000
X 19.680000 4.260845 20.650000
X 20.910000 4.970986 20.650000
X 18.450000 6.391267 20.650000
X 19.680000 7.101408 20.650000
X 17.220000 8.521690 20.650000
X 18.450000 9.231831 20.650000
X 15.990000 10.652112 20.650000
X 17.220000 11.362253 20.650000
X 14.760000 12.782535 20.650000
X 15.990000 13.492676 20.650000
X 13.530000 14.912957 20.650000
X 14.760000 15.623098 20.650000
X 12.300000 17.043380 20.650000
X 13.530000 17.753521 20.650000
X 11.070000 19.173802 20.650000
X 12.300000 19.883943 20.650000
X 9.840000 21.304225 20.650000
X 11.070000 22.014366 20.650000
X 8.610000 23.434647 20.650000
X 9.840000 24.144788 20.650000
X 7.380000 25.565070 20.650000
X 8.610000 26.275211 20.650000
X 6.150000 27.695492 20.650000
X 7.380000 28.405633 20.650000
X 4.920000 29.825915 20.650000
X 6.150000 30.536056 20.650000
X 3.690000 31.956337 20.650000
X 4.920000 32.666478 20.650000
X 2.460000 34.086760 20.650000
X 3.690000 34.796901 20.650000
X 1.230000 36.217182 20.650000
X 2.460000 36.927323 20.650000
X 0.000000 38.347605 20.650000
X 1.230000 39.057746 20.650000
X -1.230000 40.478027 20.650000
X -0.000000 41.188168 20.650000
X -2.460000 42.608450 20.650000
X -1.230000 43.318591 20.650000
X -3.690000 44.738872 20.650000
X -2.460000 45.449013 20.650000
X -4.920000 46.869295 20.650000
X -3.690000 47.579436 20.650000
X -6.150000 48.999717 20.650000
X -4.920000 49.709858 20.650000
X -7.380000 51.130140 20.650000
X -6.150000 51.840281 20.650000
X 24.600000 0.000000 20.650000
X 25.830000 0.710141 20.650000
X 23.370000 2.130422 20.650000
X 24.600000 2.840563 20.650000
X 22.140000 4.260845 20.650000
X 23.370000 4.970986 20.650000
X 20.910000 6.391267 20.650000
X 22.140000 7.101408 20.650000
X 19.680000 8.521690 20.650000
X 20.910000 9.231831 20.650000
X 18.450000 10.652112 20.650000
X 19.680000 11.362253 20.650000
X 17.220000 12.782535 20.650000
X 18.450000 13.492676 20.650000
X 15.990000 14.912957 20.650000
X 17.220000 15.623098 20.650000
X 14.760000 17.043380 20.650000
X 15.990000 17.753521 20.650000
X 13.530000 19.173802 20.650000
X 14.760000 19.883943 20.650000
X 12.300000 21.304225 20.650000
X 13.530000 22.014366 20.650000
X 11.070000 23.434647 20.650000
X 12.300000 24.144788 20.650000
X 9.840000 25.565070 20.650000
X 11.070000 26.275211 20.650000
X 8.610000 27.695492 20.650000
X 9.840000 28.405633 20.650000
X 7.380000 29.825915 20.650000
X 8.610000 30.536056 20.650000
X 6.150000 31.956337 20.650000
X 7.380000 32.666478 20.650000
X 4.920000 34.086760 20.650000
X 6.150000 34.796901 20.650000
X 3.690000 36.217182 20.650000
X 4.920000 36.927323 20.650000
X 2.460000 38.347605 20.650000
X 3.690000 39.057746 20.650000
X 1.230000 40.478027 20.650000
X 2.460000 41.188168 20.650000
X 0.000000 42.608450 20.650000
X 1.230000 43.318591 20.650000
X -1.230000 44.738872 20.650000
X 0.000000 45.449013 20.650000
X -2.460000 46.869295 20.650000
X -1.230000 47.579436 20.650000
X -3.690000 48.999717 20.650000
X -2.460000 49.709858 20.650000
X -4.920000 51.130140 20.650000
X -3.690000 51.840281 20.650000
X 27.060000 0.000000 20.650000
X 28.290000 0.710141 20.650000
X 25.830000 2.130422 20.650000
X 27.060000 2.840563 20.650000
X 24.600000 4.260845 20.650000
X 25.830000 4.970986 20.650000
X 23.370000 6.391267 20.650000
X 24.600000 7.101408 20.650000
X 22.140000 8.521690 20.650000
X 23.370000 9.231831 20.650000
X 20.910000 10.652112 20.650000
X 22.140000 11.362253 20.650000
X 19.680000 12.782535 20.650000
X 20.910000 13.492676 20.650000
X 18.450000 14.912957 20.650000
X 19.680000 15.623098 20.650000
X 17.220000 17.043380 20.650000
X 18.450000 17.753521 20.650000
X 15.990000 19.173802 20.650000
X 17.220000 19.883943 20.650000
X 14.760000 21.304225 20.650000
X 15.990000 22.014366 20.650000
X 13.530000 23.434647 20.650000
X 14.760000 24.144788 20.650000
X 12.300000 25.565070 20.650000
X 13.530000 26.275211 20.650000
X 11.070000 27.695492 20.650000
X 12.300000 28.405633 20.650000
X 9.840000 29.825915 20.650000
X 11.070000 30.536056 20.650000
X 8.610000 31.956337 20.650000
X 9.840000 32.666478 20.650000
X 7.380000 34.086760 20.650000
X 8.610000 34.796901 20.650000
X 6.150000 36.217182 20.650000
X 7.380000 36.927323 20.650000
X 4.920000 38.347605 20.650000
X 6.150000 39.057746 20.650000
X 3.690000 40.478027 20.650000
X 4.920000 41.188168 20.650000
X 2.460000 42.608450 20.650000
X 3.690000 43.318591 20.650000
X 1.230000 44.738872 20.650000
X 2.460000 45.449013 20.650000
X 0.000000 46.869295 20.650000
X 1.230000 47.579436 20.650000
X -1.230000 48.999717 20.650000
X -0.000000 49.709858 20.650000
X -2.460000 51.130140 20.650000
X -1.230000 51.840281 20.650000
X 29.520000 0.000000 20.650000
X 30.750000 0.710141 20.650000
X 28.290000 2.130422 20.650000
X 29.520000 2.840563 20.650000
X 27.060000 4.260845 20.650000
X 28.290000 4.970986 20.650000
X 25.830000 6.391267 20.650000
X 27.060000 7.101408 20.650000
X 24.600000 8.521690 20.650000
X 25.830000 9.231831 20.650000
X 23.370000 10.652112 20.650000
X 24.600000 11.362253 20.650000
X 22.140000 12.782535 20.650000
X 23.370000 13.492676 20.650000
X 20.910000 14.912957 20.650000
X 22.140000 15.623098 20.650000
X 19.680000 17.043380 20.650000
X 20.910000 17.753521 20.650000
X 18.450000 19.173802 20.650000
X 19.680000 19.883943 20.650000
X 17.220000 21.304225 20.650000
X 18.450000 22.014366 20.650000
X 15.990000 23.434647 20.650000
X 17.220000 24.144788 20.650000
X 14.760000 25.565070 20.650000
X 15.990000 26.275211 20.650000
X 13.530000 27.695492 20.650000
X 14.760000 28.405633 20.650000
X 12.300000 29.825915 20.650000
X 13.530000 30.536056 20.650000
X 11.070000 31.956337 20.650000
X 12.300000 32.666478 20.650000
X 9.840000 34.086760 20.650000
X 11.070000 34.796901 20.650000
X 8.610000 36.217182 20.650000
X 9.840000 36.927323 20.650000
X 7.380000 38.347605 20.650000
X 8.610000 39.057746 20.650000
X 6.150000 40.478027 20.650000
X 7.380000 41.188168 20.650000
X 4.920000 42.608450 20.650000
X 6.150000 43.318591 20.650000
X 3.690000 44.738872 20.650000
X 4.920000 45.449013 20.650000
X 2.460000 46.869295 20.650000
X 3.690000 47.579436 20.650000
X 1.230000 48.999717 20.650000
X 2.460000 49.709858 20.650000
X 0.000000 51.130140 20.650000
X 1.230000 51.840281 20.650000
X 31.980000 0.000000 20.650000
X 33.210000 0.710141 20.650000
X 30.750000 2.130422 20.650000
X 31.980000 2.840563 20.650000
X 29.520000 4.260845 20.650000
X 30.750000 4.970986 20.650000
X 28.290000 6.391267 20.650000
X 29.520000 7.101408 20.650000
X 27.060000 8.521690 20.650000
X 28.290000 9.231831 20.650000
X 25.830000 10.652112 20.650000
X 27.060000 11.362253 20.650000
X 24.600000 12.782535 20.650000
X 25.830000 13.492676 20.650000
X 23.370000 14.912957 20.650000
X 24.600000 15.623098 20.650000
X 22.140000 17.043380 20.650000
X 23.370000 17.753521 20.650000
X 20.910000 19.173802 20.650000
X 22.140000 19.883943 20.650000
X 19.680000 21.304225 20.650000
X 20.910000 22.014366 20.650000
X 18.450000 23.434647 20.650000
X 19.680000 24.144788 20.650000
X 17.220000 25.565070 20.650000
X 18.450000 26.275211 20.650000
X 15.990000 27.695492 20.650000
X 17.220000 28.405633 20.650000
X 14.760000 29.825915 20.650000
X 15.990000 30.536056 20.650000
X 13.530000 31.956337 20.650000
X 14.760000 32.666478 20.650000
X 12.300000 34.086760 20.650000
X 13.530000 34.796901 20.650000
X 11.070000 36.217182 20.650000
X 12.300000 36.927323 20.650000
X 9.840000 38.347605 20.650000
X 11.070000 39.057746 20.650000
X 8.610000 40.478027 20.650000
X 9.840000 41.188168 20.650000
X 7.380000 42.608450 20.650000
X 8.610000 43.318591 20.650000
X 6.150000 44.738872 20.650000
X 7.380000 45.449013 20.650000
X 4.920000 46.869295 20.650000
X 6.150000 47.579436 20.650000
X 3.690000 48.999717 20.650000
X 4.920000 49.709858 20.650000
X 2.460000 51.130140 20.650000
X 3.690000 51.840281 20.650000
X 34.440000 0.000000 20.650000
X 35.670000 0.710141 20.650000
X 33.210000 2.130422 20.650000
X 34.440000 2.840563 20.650000
X 31.980000 4.260845 20.650000
X 33.210000 4.970986 20.650000
X 30.750000 6.391267 20.650000
X 31.980000 7.101408 20.650000
X 29.520000 8.521690 20.650000
X 30.750000 9.231831 20.650000
X 28.290000 10.652112 20.650000
X 29.520000 11.362253 20.650000
X 27.060000 12.782535 20.650000
X 28.290000 13.492676 20.650000
X 25.830000 14.912957 20.650000
X 27.060000 15.623098 20.650000
X 24.600000 17.043380 20.650000
X 25.830000 17.753521 20.650000
X 23.370000 19.173802 20.650000
X 24.600000 19.883943 20.650000
X 22.140000 21.304225 20.650000
X 23.370000 22.014366 20.650000
X 20.910000 23.434647 20.650000
X 22.140000 24.144788 20.650000
X 19.680000 25.565070 20.650000
X 20.910000 26.275211 20.650000
X 18.450000 27.695492 20.650000
X 19.680000 28.405633 20.650000
X 17.220000 29.825915 20.650000
X 18.450000 30.536056 20.650000
X 15.990000 31.956337 20.650000
X 17.220000 32.666478 20.650000
X 14.760000 34.086760 20.650000
X 15.990000 34.796901 20.650000
X 13.530000 36.217182 20.650000
X 14.760000 36.927323 20.650000
X 12.300000 38.347605 20.650000
X 13.530000 39.057746 20.650000
X 11.070000 40.478027 20.650000
X 12.300000 41.188168 20.650000
X 9.840000 42.608450 20.650000
X 11.070000 43.318591 20.650000
X 8.610000 44.738872 20.650000
X 9.840000 45.449013 20.650000
X 7.380000 46.869295 20.650000
X 8.610000 47.579436 20.650000
X 6.150000 48.999717 20.650000
X 7.380000 49.709858 20.650000
X 4.920000 51.130140 20.650000
X 6.150000 51.840281 20.650000
X 36.900000 0.000000 20.650000
X 38.130000 0.710141 20.650000
X 35.670000 2.130422 20.650000
X 36.900000 2.840563 20.650000
X 34.440000 4.260845 20.650000
X 35.670000 4.970986 20.650000
X 33.210000 6.391267 20.650000
X 34.440000 7.101408 20.650000
X 31.980000 8.521690 20.650000
X 33.210000 9.231831 20.650000
X 30.750000 10.652112 20.650000
X 31.980000 11.362253 20.650000
X 29.520000 12.782535 20.650000
X 30.750000 13.492676 20.650000
X 28.290000 14.912957 20.650000
X 29.520000 15.623098 20.650000
X 27.060000 17.043380 20.650000
X 28.290000 17.753521 20.650000
X 25.830000 19.173802 20.650000
X 27.060000 19.883943 20.650000
X 24.600000 21.304225 20.650000
X 25.830000 22.014366 20.650000
X 23.370000 23.434647 20.650000
X 24.600000 24.144788 20.650000
X 22.140000 25.565070 20.650000
X 23.370000 26.275211 20.650000
X 20.910000 27.695492 20.650000
X 22.140000 28.405633 20.650000
X 19.680000 29.825915 20.650000
X 20.910000 30.536056 20.650000
X 18.450000 31.956337 20.650000
X 19.680000 32.666478 20.650000
X 17.220000 34.086760 20.650000
X 18.450000 34.796901 20.650000
X 15.990000 36.217182 20.650000
X 17.220000 36.927323 20.650000
X 14.760000 38.347605 20.650000
X 15.990000 39.057746 20.650000
X 13.530000 40.478027 20.650000
X 14.760000 41.188168 20.650000
X 12.300000 42.608450 20.650000
X 13.530000 43.318591 20.650000
X 11.070000 44.738872 20.650000
X 12.300000 45.449013 20.650000
X 9.840000 46.869295 20.650000
X 11.070000 47.579436 20.650000
X 8.610000 48.999717 20.650000
X 9.840000 49.709858 20.650000
X 7.380000 51.130140 20.650000
X 8.610000 51.840281 20.650000
X 39.360000 0.000000 20.650000
X 40.590000 0.710141 20.650000
X 38.130000 2.130422 20.650000
X 39.360000 2.840563 20.650000
X 36.900000 4.260845 20.650000
X 38.130000 4.970986 20.650000
X 35.670000 6.391267 20.650000
X 36.900000 7.101408 20.650000
X 34.440000 8.521690 20.650000
X 35.670000 9.231831 20.650000
X 33.210000 10.652112 20.650000
X 34.440000 11.362253 20.650000
X 31.980000 12.782535 20.650000
X 33.210000 13.492676 20.650000
X 30.750000 14.912957 20.650000
X 31.980000 15.623098 20.650000
X 29.520000 17.043380 20.650000
X 30.750000 17.753521 20.650000
X 28.290000 19.173802 20.650000
X 29.520000 19.883943 20.650000
X 27.060000 21.304225 20.650000
X 28.290000 22.014366 20.650000
X 25.830000 23.434647 20.650000
X 27.060000 24.144788 20.650000
X 24.600000 25.565070 20.650000
X 25.830000 26.275211 20.650000
X 23.370000 27.695492 20.650000
X 24.600000 28.405633 20.650000
X 22.140000 29.825915 20.650000
X 23.370000 30.536056 20.650000
X 20.910000 31.956337 20.650000
X 22.140000 32.666478 20.650000
X 19.680000 34.086760 20.650000
X 20.910000 34.796901 20.650000
X 18.450000 36.217182 20.650000
X 19.680000 36.927323 20.650000
X 17.220000 38.347605 20.650000
X 18.450000 39.057746 20.650000
X 15.990000 40.478027 20.650000
X 17.220000 41.188168 20.650000
X 14.760000 42.608450 20.650000
X 15.990000 43.318591 20.650000
X 13.530000 44.738872 20.650000
X 14.760000 45.449013 20.650000
X 12.300000 46.869295 20.650000
X 13.530000 47.579436 20.650000
X 11.070000 48.999717 20.650000
X 12.300000 49.709858 20.650000
X 9.840000 51.130140 20.650000
X 11.070000 51.840281 20.650000
X 41.820000 0.000000 20.650000
X 43.050000 0.710141 20.650000
X 40.590000 2.130422 20.650000
X 41.820000 2.840563 20.650000
X 39.360000 4.260845 20.650000
X 40.590000 4.970986 20.650000
X 38.130000 6.391267 20.650000
X 39.360000 7.101408 20.650000
X 36.900000 8.521690 20.650000
X 38.130000 9.231831 20.650000
X 35.670000 10.652112 20.650000
X 36.900000 11.362253 20.650000
X 34.440000 12.782535 20.650000
X 35.670000 13.492676 20.650000
X 33.210000 14.912957 20.650000
X 34.440000 15.623098 20.650000
X 31.980000 17.043380 20.650000
X 33.210000 17.753521 20.650000
X 30.750000 19.173802 20.650000
X 31.980000 19.883943 20.650000
X 29.520000 21.304225 20.650000
X 30.750000 22.014366 20.650000
X 28.290000 23.434647 20.650000
X 29.520000 24.144788 20.650000
X 27.060000 25.565070 20.650000
X 28.290000 26.275211 20.650000
X 25.830000 27.695492 20.650000
X 27.060000 28.405633 20.650000
X 24.600000 29.825915 20.650000
X 25.830000 30.536056 20.650000
X 23.370000 31.956337 20.650000
X 24.600000 32.666478 20.650000
X 22.140000 34.086760 20.650000
X 23.370000 34.796901 20.650000
X 20.910000 36.217182 20.650000
X 22.140000 36.927323 20.650000
X 19.680000 38.347605 20.650000
X 20.910000 39.057746 20.650000
X 18.450000 40.478027 20.650000
X 19.680000 41.188168 20.650000
X 17.220000 42.608450 20.650000
X 18.450000 43.318591 20.650000
X 15.990000 44.738872 20.650000
X 17.220000 45.449013 20.650000
X 14.760000 46.869295 20.650000
X 15.990000 47.579436 20.650000
X 13.530000 48.999717 20.650000
X 14.760000 49.709858 20.650000
X 12.300000 51.130140 20.650000
X 13.530000 51.840281 20.650000
X 44.280000 0.000000 20.650000
X 45.510000 0.710141 20.650000
X 43.050000 2.130422 20.650000
X 44.280000 2.840563 20.650000
X 41.820000 4.260845 20.650000
X 43.050000 4.970986 20.650000
X 40.590000 6.391267 20.650000
X 41.820000 7.101408 20.650000
X 39.360000 8.521690 20.650000
X 40.590000 9.231831 20.650000
X 38.130000 10.652112 20.650000
X 39.360000 11.362253 20.650000
X 36.900000 12.782535 20.650000
X 38.130000 13.492676 20.650000
X 35.670000 14.912957 20.650000
X 36.900000 15.623098 20.650000
X 34.440000 17.043380 20.650000
X 35.670000 17.753521 20.650000
X 33.210000 19.173802 20.650000
X 34.440000 19.883943 20.650000
X 31.980000 21.304225 20.650000
X 33.210000 22.014366 20.650000
X 30.750000 23.434647 20.650000
X 31.980000 24.144788 20.650000
X 29.520000 25.565070 20.650000
X 30.750000 26.275211 20.650000
X 28.290000 27.695492 20.650000
X 29.520000 28.405633 20.650000
X 27.060000 29.825915 20.650000
X 28.290000 30.536056 20.650000
X 25.830000 31.956337 20.650000
X 27.060000 32.666478 20.650000
X 24.600000 34.086760 20.650000
X 25.830000 34.796901 20.650000
X 23.370000 36.217182 20.650000
X 24.600000 36.927323 20.650000
X 22.140000 38.347605 20.650000
X 23.370000 39.057746 20.650000
X 20.910000 40.478027 20.650000
X 22.140000 41.188168 20.650000
X 19.680000 42.608450 20.650000
X 20.910000 43.318591 20.650000
X 18.450000 44.738872 20.650000
X 19.680000 45.449013 20.650000
X 17.220000 46.869295 20.650000
X 18.450000 47.579436 20.650000
X 15.990000 48.999717 20.650000
X 17.220000 49.709858 20.650000
X 14.760000 51.130140 20.650000
X 15.990000 51.840281 20.650000
X 46.740000 0.000000 20.650000
X 47.970000 0.710141 20.650000
X 45.510000 2.130422 20.650000
X 46.740000 2.840563 20.650000
X 44.280000 4.260845 20.650000
X 45.510000 4.970986 20.650000
X 43.050000 6.391267 20.650000
X 44.280000 7.101408 20.650000
X 41.820000 8.521690 20.650000
X 43.050000 9.231831 20.650000
X 40.590000 10.652112 20.650000
X 41.820000 11.362253 20.650000
X 39.360000 12.782535 20.650000
X 40.590000 13.492676 20.650000
X 38.130000 14.912957 20.650000
X 39.360000 15.623098 20.650000
X 36.900000 17.043380 20.650000
X 38.130000 17.753521 20.650000
X 35.670000 19.173802 20.650000
X 36.900000 19.883943 20.650000
X 34.440000 21.304225 20.650000
X 35.670000 22.014366 20.650000
X 33.210000 23.434647 20.650000
X 34.440000 24.144788 20.650000
X 31.980000 25.565070 20.650000
X 33.210000 26.275211 20.650000
X 30.750000 27.695492 20.650000
X 31.980000 28.405633 20.650000
X 29.520000 29.825915 20.650000
X 30.750000 30.536056 20.650000
X 28.290000 31.956337 20.650000
X 29.520000 32.666478 20.650000
X 27.060000 34.086760 20.650000
X 28.290000 34.796901 20.650000
X 25.830000 36.217182 20.650000
X 27.060000 36.927323 20.650000
X 24.600000 38.347605 20.650000
X 25.830000 39.057746 20.650000
X 23.370000 40.478027 20.650000
X 24.600000 41.188168 20.650000
X 22.140000 42.608450 20.650000
X 23.370000 43.318591 20.650000
X 20.910000 44.738872 20.650000
X 22.140000 45.449013 20.650000
X 19.680000 46.869295 20.650000
X 20.910000 47.579436 20.650000
X 18.450000 48.999717 20.650000
X 19.680000 49.709858 20.650000
X 17.220000 51.130140 20.650000
X 18.450000 51.840281 20.650000
X 49.200000 0.000000 20.650000
X 50.430000 0.710141 20.650000
X 47.970000 2.130422 20.650000
X 49.200000 2.840563 20.650000
X 46.740000 4.260845 20.650000
X 47.970000 4.970986 20.650000
X 45.510000 6.391267 20.650000
X 46.740000 7.101408 20.650000
X 44.280000 8.521690 20.650000
X 45.510000 9.231831 20.650000
X 43.050000 10.652112 20.650000
X 44.280000 11.362253 20.650000
X 41.820000 12.782535 20.650000
X 43.050000 13.492676 20.650000
X 40.590000 14.912957 20.650000
X 41.820000 15.623098 20.650000
X 39.360000 17.043380 20.650000
X 40.590000 17.753521 20.650000
X 38.130000 19.173802 20.650000
X 39.360000 19.883943 20.650000
X 36.900000 21.304225 20.650000
X 38.130000 22.014366 20.650000
X 35.670000 23.434647 20.650000
X 36.900000 24.144788 20.650000
X 34.440000 25.565070 20.650000
X 35.670000 26.275211 20.650000
X 33.210000 27.695492 20.650000
X 34.440000 28.405633 20.650000
X 31.980000 29.825915 20.650000
X 33.210000 30.536056 20.650000
X 30.750000 31.956337 20.650000
X 31.980000 32.666478 20.650000
X 29.520000 34.086760 20.650000
X 30.750000 34.796901 20.650000
X 28.290000 36.217182 20.650000
X 29.520000 36.927323 20.650000
X 27.060000 38.347605 20.650000
X 28.290000 39.057746 20.650000
X 25.830000 40.478027 20.650000
X 27.060000 41.188168 20.650000
X 24.600000 42.608450 20.650000
X 25.830000 43.318591 20.650000
X 23.370000 44.738872 20.650000
X 24.600000 45.449013 20.650000
X 22.140000 46.869295 20.650000
X 23.370000 47.579436 20.650000
X 20.910000 48.999717 20.650000
X 22.140000 49.709858 20.650000
X 19.680000 51.130140 20.650000
X 20.910000 51.840281 20.650000
X 51.660000 0.000000 20.650000
X 52.890000 0.710141 20.650000
X 50.430000 2.130422 20.650000
X 51.660000 2.840563 20.650000
X 49.200000 4.260845 20.650000
X 50.430000 4.970986 20.650000
X 47.970000 6.391267 20.650000
X 49.200000 7.101408 20.650000
X 46.740000 8.521690 20.650000
X 47.970000 9.231831 20.650000
X 45.510000 10.652112 20.650000
X 46.740000 11.362253 20.650000
X 44.280000 12.782535 20.650000
X 45.510000 13.492676 20.650000
X 43.050000 14.912957 20.650000
X 44.280000 15.623098 20.650000
X 41.820000 17.043380 20.650000
X 43.050000 17.753521 20.650000
X 40.590000 19.173802 20.650000
X 41.820000 19.883943 20.650000
X 39.360000 21.304225 20.650000
X 40.590000 22.014366 20.650000
X 38.130000 23.434647 20.650000
X 39.360000 24.144788 20.650000
X 36.900000 25.565070 20.650000
X 38.130000 26.275211 20.650000
X 35.670000 27.695492 20.650000
X 36.900000 28.405633 20.650000
X 34.440000 29.825915 20.650000
X 35.670000 30.536056 20.650000
X 33.210000 31.956337 20.650000
X 34.440000 32.666478 20.650000
X 31.980000 34.086760 20.650000
X 33.210000 34.796901 20.650000
X 30.750000 36.217182 20.650000
X 31.980000 36.927323 20.650000
X 29.520000 38.347605 20.650000
X 30.750000 39.057746 20.650000
X 28.290000 40.478027 20.650000
X 29.520000 41.188168 20.650000
X 27.060000 42.608450 20.650000
X 28.290000 43.318591 20.650000
X 25.830000 44.738872 20.650000
X 27.060000 45.449013 20.650000
X 24.600000 46.869295 20.650000
X 25.830000 47.579436 20.650000
X 23.370000 48.999717 20.650000
X 24.600000 49.709858 20.650000
X 22.140000 51.130140 20.650000
X 23.370000 51.840281 20.650000
X 54.120000 0.000000 20.650000
X 55.350000 0.710141 20.650000
X 52.890000 2.130422 20.650000
X 54.120000 2.840563 20.650000
X 51.660000 4.260845 20.650000
X 52.890000 4.970986 20.650000
X 50.430000 6.391267 20.650000
X 51.660000 7.101408 20.650000
X 49.200000 8.521690 20.650000
X 50.430000 9.231831 20.650000
X 47.970000 10.652112 20.650000
X 49.200000 11.362253 20.650000
X 46.740000 12.782535 20.650000
X 47.970000 13.492676 20.650000
X 45.510000 14.912957 20.650000
X 46.740000 15.623098 20.650000
X 44.280000 17.043380 20.650000
X 45.510000 17.753521 20.650000
X 43.050000 19.173802 20.650000
X 44.280000 19.883943 20.650000
X 41.820000 21.304225 20.650000
X 43.050000 22.014366 20.650000
X 40.590000 23.434647 20.650000
X 41.820000 24.144788 20.650000
X 39.360000 25.565070 20.650000
X 40.590000 26.275211 20.650000
X 38.130000 27.695492 20.650000
X 39.360000 28.405633 20.650000
X 36.900000 29.825915 20.650000
X 38.130000 30.536056 20.650000
X 35.670000 31.956337 20.650000
X 36.900000 32.666478 20.650000
X 34.440000 34.086760 20.650000
X 35.670000 34.796901 20.650000
X 33.210000 36.217182 20.650000
X 34.440000 36.927323 20.650000
X 31.980000 38.347605 20.650000
X 33.210000 39.057746 20.650000
X 30.750000 40.478027 20.650000
X 31.980000 41.188168 20.650000
X 29.520000 42.608450 20.650000
X 30.750000 43.318591 20.650000
X 28.290000 44.738872 20.650000
X 29.520000 45.449013 20.650000
X 27.060000 46.869295 20.650000
X 28.290000 47.579436 20.650000
X 25.830000 48.999717 20.650000
X 27.060000 49.709858 20.650000
X 24.600000 51.130140 20.650000
X 25.830000 51.840281 20.650000
X 56.580000 0.000000 20.650000
X 57.810000 0.710141 20.650000
X 55.350000 2.130422 20.650000
X 56.580000 2.840563 20.650000
X 54.120000 4.260845 20.650000
X 55.350000 4.970986 20.650000
X 52.890000 6.391267 20.650000
X 54.120000 7.101408 20.650000
X 51.660000 8.521690 20.650000
X 52.890000 9.231831 20.650000
X 50.430000 10.652112 20.650000
X 51.660000 11.362253 20.650000
X 49.200000 12.782535 20.650000
X 50.430000 13.492676 20.650000
X 47.970000 14.912957 20.650000
X 49.200000 15.623098 20.650000
X 46.740000 17.043380 20.650000
X 47.970000 17.753521 20.650000
X 45.510000 19.173802 20.650000
X 46.740000 19.883943 20.650000
X 44.280000 21.304225 20.650000
X 45.510000 22.014366 20.650000
X 43.050000 23.434647 20.650000
X 44.280000 24.144788 20.650000
X 41.820000 25.565070 20.650000
X 43.050000 26.275211 20.650000
X 40.590000 27.695492 20.650000
X 41.820000 28.405633 20.650000
X 39.360000 29.825915 20.650000
X 40.590000 30.536056 20.650000
X 38.130000 31.956337 20.650000
X 39.360000 32.666478 20.650000
X 36.900000 34.086760 20.650000
X 38.130000 34.796901 20.650000
X 35.670000 36.217182 20.650000
X 36.900000 36.927323 20.650000
X 34.440000 38.347605 20.650000
X 35.670000 39.057746 20.650000
X 33.210000 40.478027 20.650000
X 34.440000 41.188168 20.650000
X 31.980000 42.608450 20.650000
X 33.210000 43.318591 20.650000
X 30.750000 44.738872 20.650000
X 31.980000 45.449013 20.650000
X 29.520000 46.869295 20.650000
X 30.750000 47.579436 20.650000
X 28.290000 48.999717 20.650000
X 29.520000 49.709858 20.650000
X 27.060000 51.130140 20.650000
X 28.290000 51.840281 20.650000
X 59.040000 0.000000 20.650000
X 60.270000 0.710141 20.650000
X 57.810000 2.130422 20.650000
X 59.040000 2.840563 20.650000
X 56.580000 4.260845 20.650000
X 57.810000 4.970986 20.650000
X 55.350000 6.391267 20.650000
X 56.580000 7.101408 20.650000
X 54.120000 8.521690 20.650000
X 55.350000 9.231831 20.650000
X 52.890000 10.652112 20.650000
X 54.120000 11.362253 20.650000
X 51.660000 12.782535 20.650000
X 52.890000 13.492676 20.650000
X 50.430000 14.912957 20.650000
X 51.660000 15.623098 20.650000
X 49.200000 17.043380 20.650000
X 50.430000 17.753521 20.650000
X 47.970000 19.173802 20.650000
X 49.200000 19.883943 20.650000
X 46.740000 21.304225 20.650000
X 47.970000 22.014366 20.650000
X 45.510000 23.434647 20.650000
X 46.740000 24.144788 20.650000
X 44.280000 25.565070 20.650000
X 45.510000 26.275211 20.650000
X 43.050000 27.695492 20.650000
X 44.280000 28.405633 20.650000
X 41.820000 29.825915 20.650000
X 43.050000 30.536056 20.650000
X 40.590000 31.956337 20.650000
X 41.820000 32.666478 20.650000
X 39.360000 34.086760 20.650000
X 40.590000 34.796901 20.650000
X 38.130000 36.217182 20.650000
X 39.360000 36.927323 20.650000
X 36.900000 38.347605 20.650000
X 38.130000 39.057746 20.650000
X 35.670000 40.478027 20.650000
X 36.900000 41.188168 20.650000
X 34.440000 42.608450 20.650000
X 35.670000 43.318591 20.650000
X 33.210000 44.738872 20.650000
X 34.440000 45.449013 20.650000
X 31.980000 46.869295 20.650000
X 33.210000 47.579436 20.650000
X 30.750000 48.999717 20.650000
X 31.980000 49.709858 20.650000
X 29.520000 51.130140 20.650000
X 30.750000 51.840281 20.650000
X 0.000000 0.000000 19.350000
X 1.230000 0.710141 19.350000
X -1.230000 2.130422 19.350000
X 0.000000 2.840563 19.350000
X -2.460000 4.260845 19.350000
X -1.230000 4.970986 19.350000
X -3.690000 6.391267 19.350000
X -2.460000 7.101408 19.350000
X -4.920000 8.521690 19.350000
X -3.690000 9.231831 19.350000
X -6.150000 10.652112 19.350000
X -4.920000 11.362253 19.350000
X -7.380000 12.782535 19.350000
X -6.150000 13.492676 19.350000
X -8.610000 14.912957 19.350000
X -7.380000 15.623098 19.350000
X -9.840000 17.043380 19.350000
X -8.610000 17.753521 19.350000
X -11.070000 19.173802 19.350000
X -9.840000 19.883943 19.350000
X -12.300000 21.304225 19.350000
X -11.070000 22.014366 19.350000
X -13.530000 23.434647 19.350000
X -12.300000 24.144788 19.350000
X -14.760000 25.565070 19.350000
X -13.530000 26.275211 19.350000
X -15.990000 27.695492 19.350000
X -14.760000 28.405633 19.350000
X -17.220000 29.825915 19.350000
X -15.990000 30.536056 19.350000
X -18.450000 31.956337 19.350000
X -17.220000 32.666478 19.350000
X -19.680000 34.086760 19.350000
X -18.450000 34.796901 19.350000
X -20.910000 36.217182 19.350000
X -19.680000 36.927323 19.350000
X -22.140000 38.347605 19.350000
X -20.910000 39.057746 19.350000
X -23.370000 40.478027 19.350000
X -22.140000 41.188168 19.350000
X -24.600000 42.608450 19.350000
X -23.370000 43.318591 19.350000
X -25.830000 44.738872 19.350000
X -24.600000 45.449013 19.350000
X -27.060000 46.869295 19.350000
X -25.830000 47.579436 19.350000
X -28.290000 48.999717 19.350000
X -27.060000 49.709858 19.350000
X -29.520000 51.130140 19.350000
X -28.290000 51.840281 19.350000
X 2.460000 0.000000 19.350000
X 3.690000 0.710141 19.350000
X 1.230000 2.130422 19.350000
X 2.460000 2.840563 19.350000
X 0.000000 4.260845 19.350000
X 1.230000 4.970986 19.350000
X -1.230000 6.391267 19.350000
X 0.000000 7.101408 19.350000
X -2.460000 8.521690 19.350000
X -1.230000 9.231831 19.350000
X -3.690000 10.652112 19.350000
X -2.460000 11.362253 19.350000
X -4.920000 12.782535 19.350000
X -3.690000 13.492676 19.350000
X -6.150000 14.912957 19.350000
X -4.920000 15.623098 19.350000
X -7.380000 17.043380 19.350000
X -6.150000 17.753521 19.350000
X -8.610000 19.173802 19.350000
X -7.380000 19.883943 19.350000
X -9.840000 21.304225 19.350000
X -8.610000 22.014366 19.350000
X -11.070000 23.434647 19.350000
X -9.840000 24.144788 19.350000
X -12.300000 25.565070 19.350000
X -11.070000 26.275211 19.350000
X -13.530000 27.695492 19.350000
X -12.300000 28.405633 19.350000
X -14.760000 29.825915 19.350000
X -13.530000 30.536056 19.350000
X -15.990000 31.956337 19.350000
X -14.760000 32.666478 19.350000
X -17.220000 34.086760 19.350000
X -15.990000 34.796901 19.350000
X -18.450000 36.217182 19.350000
X -17.220000 36.927323 19.350000
X -19.680000 38.347605 19.350000
X -18.450000 39.057746 19.350000
X -20.910000 40.478027 19.350000
X -19.680000 41.188168 19.350000
X -22.140000 42.608450 19.350000
X -20.910000 43.318591 19.350000
X -23.370000 44.738872 19.350000
X -22.140000 45.449013 19.350000
X -24.600000 46.869295 19.350000
X -23.370000 47.579436 19.350000
X -25.830000 48.999717 19.350000
X -24.600000 49.709858 19.350000
X -27.060000 51.130140 19.350000
X -25.830000 51.840281 19.350000
X 4.920000 0.000000 19.350000
X 6.150000 0.710141 19.350000
X 3.690000 2.130422 19.350000
X 4.920000 2.840563 19.350000
X 2.460000 4.260845 19.350000
X 3.690000 4.970986 19.350000
X 1.230000 6.391267 19.350000
X 2.460000 7.101408 19.350000
X 0.000000 8.521690 19.350000
X 1.230000 9.231831 19.350000
X -1.230000 10.652112 19.350000
X -0.000000 11.362253 19.350000
X -2.460000 12.782535 19.350000
X -1.230000 13.492676 19.350000
X -3.690000 14.912957 19.350000
X -2.460000 15.623098 19.350000
X -4.920000 17.043380 19.350000
X -3.690000 17.753521 19.350000
X -6.150000 19.173802 19.350000
X -4.920000 19.883943 19.350000
X -7.380000 21.304225 19.350000
X -6.150000 22.014366 19.350000
X -8.610000 23.434647 19.350000
X -7.380000 24.144788 19.350000
X -9.840000 25.565070 19.350000
X -8.610000 26.275211 19.350000
X -11.070000 27.695492 19.350000
X -9.840000 28.405633 19.350000
X -12.300000 29.825915 19.350000
X -11.070000 30.536056 19.350000
X -13.530000 31.956337 19.350000
X -12.300000 32.666478 19.350000
X -14.760000 34.086760 19.350000
X -13.530000 34.796901 19.350000
X -15.990000 36.217182 19.350000
X -14.760000 36.927323 19.350000
X -17.220000 38.347605 19.350000
X -15.990000 39.057746 19.350000
X -18.450000 40.478027 19.350000
X -17.220000 41.188168 19.350000
X -19.680000 42.608450 19.350000
X -18.450000 43.318591 19.350000
X -20.910000 44.738872 19.350000
X -19.680000 45.449013 19.350000
X -22.140000 46.869295 19.350000
X -20.910000 47.579436 19.350000
X -23.370000 48.999717 19.350000
X -22.140000 49.709858 19.350000
X -24.600000 51.130140 19.350000
X -23.370000 51.840281 19.350000
X 7.380000 0.000000 19.350000
X 8.610000 0.710141 19.350000
X 6.150000 2.130422 19.350000
X 7.380000 2.840563 19.350000
X 4.920000 4.260845 19.350000
X 6.150000 4.970986 19.350000
X 3.690000 6.391267 19.350000
X 4.920000 7.101408 19.350000
X 2.460000 8.521690 19.350000
X 3.690000 9.231831 19.350000
X 1.230000 10.652112 19.350000
X 2.460000 11.362253 19.350000
X 0.000000 12.782535 19.350000
X 1.230000 13.492676 19.350000
X -1.230000 14.912957 19.350000
X 0.000000 15.623098 19.350000
X -2.460000 17.043380 19.350000
X -1.230000 17.753521 19.350000
X -3.690000 19.173802 19.350000
X -2.460000 19.883943 19.350000
X -4.920000 21.304225 19.350000
X -3.690000 22.014366 19.350000
X -6.150000 23.434647 19.350000
X -4.920000 24.144788 19.350000
X -7.380000 25.565070 19.350000
X -6.150000 26.275211 19.350000
X -8.610000 27.695492 19.350000
X -7.380000 28.405633 19.350000
X -9.840000 29.825915 19.350000
X -8.610000 30.536056 19.350000
X -11.070000 31.956337 19.350000
X -9.840000 32.666478 19.350000
X -12.300000 34.086760 19.350000
X -11.070000 34.796901 19.350000
X -13.530000 36.217182 19.350000
X -12.300000 36.927323 19.350000
X -14.760000 38.347605 19.350000
X -13.530000 39.057746 19.350000
X -15.990000 40.478027 19.350000
X -14.760000 41.188168 19.350000
X -17.220000 42.608450 19.350000
X -15.990000 43.318591 19.350000
X -18.450000 44.738872 19.350000
X -17.220000 45.449013 19.350000
X -19.680000 46.869295 19.350000
X -18.450000 47.579436 19.350000
X -20.910000 48.999717 19.350000
X -19.680000 49.709858 19.350000
X -22.140000 51.130140 19.350000
X -20.910000 51.840281 19.350000
X 9.840000 0.000000 19.350000
X 11.070000 0.710141 19.350000
X 8.610000 2.130422 19.350000
X 9.840000 2.840563 19.350000
X 7.380000 4.260845 19.350000
X 8.610000 4.970986 19.350000
X 6.150000 6.391267 19.350000
X 7.380000 7.101408 19.350000
X 4.920000 8.521690 19.350000
X 6.150000 9.231831 19.350000
X 3.690000 10.652112 19.350000
X 4.920000 11.362253 19.350000
X 2.460000 12.782535 19.350000
X 3.690000 13.492676 19.350000
X 1.230000 14.912957 19.350000
X 2.460000 15.623098 19.350000
X 0.000000 17.043380 19.350000
X 1.230000 17.753521 19.350000
X -1.230000 19.173802 19.350000
X -0.000000 19.883943 19.350000
X -2.460000 21.304225 19.350000
X -1.230000 22.014366 19.350000
X -3.690000 23.434647 19.350000
X -2.460000 24.144788 19.350000
X -4.920000 25.565070 19.350000
X -3.690000 26.275211 19.350000
X -6.150000 27.695492 19.350000
X -4.920000 28.405633 19.350000
X -7.380000 29.825915 19.350000
X -6.150000 30.536056 19.350000
X -8.610000 31.956337 19.350000
X -7.380000 32.666478 19.350000
X -9.840000 34.086760 19.350000
X -8.610000 34.796901 19.350000
X -11.070000 36.217182 19.350000
X -9.840000 36.927323 19.350000
X -12.300000 38.347605 19.350000
X -11.070000 39.057746 19.350000
X -13.530000 40.478027 19.350000
X -12.300000 41.188168 19.350000
X -14.760000 42.608450 19.350000
X -13.530000 43.318591 19.350000
X -15.990000 44.738872 19.350000
X -14.760000 45.449013 19.350000
X -17.220000 46.869295 19.350000
X -15.990000 47.579436 19.350000
X -18.450000 48.999717 19.350000
X -17.220000 49.709858 19.350000
X -19.680000 51.130140 19.350000
X -18.450000 51.840281 19.350000
X 12.300000 0.000000 19.350000
X 13.530000 0.710141 19.350000
X 11.070000 2.130422 19.350000
X 12.300000 2.840563 19.350000
X 9.840000 4.260845 19.350000
X 11.070000 4.970986 19.350000
X 8.610000 6.391267 19.350000
X 9.840000 7.101408 19.350000
X 7.380000 8.521690 19.350000
X 8.610000 9.231831 19.350000
X 6.150000 10.652112 19.350000
X 7.380000 11.362253 19.350000
X 4.920000 12.782535 19.350000
X 6.150000 13.492676 19.350000
X 3.690000 14.912957 19.350000
X 4.920000 15.623098 19.350000
X 2.460000 17.043380 19.350000
X 3.690000 17.753521 19.350000
X 1.230000 19.173802 19.350000
X 2.460000 19.883943 19.350000
X 0.000000 21.304225 19.350000
X 1.230000 22.014366 19.350000
X -1.230000 23.434647 19.350000
X 0.000000 24.144788 19.350000
X -2.460000 25.565070 19.350000
X -1.230000 26.275211 19.350000
X -3.690000 27.695492 19.350000
X -2.460000 28.405633 19.350000
X -4.920000 29.825915 19.350000
X -3.690000 30.536056 19.350000
X -6.150000 31.956337 19.350000
X -4.920000 32.666478 19.350000
X -7.380000 34.086760 19.350000
X -6.150000 34.796901 19.350000
X -8.610000 36.217182 19.350000
X -7.380000 36.927323 19.350000
X -9.840000 38.347605 19.350000
X -8.610000 39.057746 19.350000
X -11.070000 40.478027 19.350000
X -9.840000 41.188168 19.350000
X -12.300000 42.608450 19.350000
X -11.070000 43.318591 19.350000
X -13.530000 44.738872 19.350000
X -12.300000 45.449013 19.350000
X -14.760000 46.869295 19.350000
X -13.530000 47.579436 19.350000
X -15.990000 48.999717 19.350000
X -14.760000 49.709858 19.350000
X -17.220000 51.130140 19.350000
X -15.990000 51.840281 19.350000
X 14.760000 0.000000 19.350000
X 15.990000 0.710141 19.350000
X 13.530000 2.130422 19.350000
X 14.760000 2.840563 19.350000
X 12.300000 4.260845 19.350000
X 13.530000 4.970986 19.350000
X 11.070000 6.391267 19.350000
X 12.300000 7.101408 19.350000
X 9.840000 8.521690 19.350000
X 11.070000 9.231831 19.350000
X 8.610000 10.652112 19.350000
X 9.840000 11.362253 19.350000
X 7.380000 12.782535 19.350000
X 8.610000 13.492676 19.350000
X 6.150000 14.912957 19.350000
X 7.380000 15.623098 19.350000
X 4.920000 17.043380 19.350000
X 6.150000 17.753521 19.350000
X 3.690000 19.173802 19.350000
X 4.920000 19.883943 19.350000
X 2.460000 21.304225 19.350000
X 3.690000 22.014366 19.350000
X 1.230000 23.434647 19.350000
X 2.460000 24.144788 19.350000
X 0.000000 25.565070 19.350000
X 1.230000 26.275211 19.350000
X -1.230000 27.695492 19.350000
X -0.000000 28.405633 19.350000
X -2.460000 29.825915 19.350000
X -1.230000 30.536056 19.350000
X -3.690000 31.956337 19.350000
X -2.460000 32.666478 19.350000
X -4.920000 34.086760 19.350000
X -3.690000 34.796901 19.350000
X -6.150000 36.217182 19.350000
X -4.920000 36.927323 19.350000
X -7.380000 38.347605 19.350000
X -6.150000 39.057746 19.350000
X -8.610000 40.478027 19.350000
X -7.380000 41.188168 19.350000
X -9.840000 42.608450 19.350000
X -8.610000 43.318591 19.350000
X -11.070000 44.738872 19.350000
X -9.840000 45.449013 19.350000
X -12.300000 46.869295 19.350000
X -11.070000 47.579436 19.350000
X -13.530000 48.999717 19.350000
X -12.300000 49.709858 19.350000
X -14.760000 51.130140 19.350000
X -13.530000 51.840281 19.350000
X 17.220000 0.000000 19.350000
X 18.450000 0.710141 19.350000
X 15.990000 2.130422 19.350000
X 17.220000 2.840563 19.350000
X 14.760000 4.260845 19.350000
X 15.990000 4.970986 19.350000
X 13.530000 6.391267 19.350000
X 14.760000 7.101408 19.350000
X 12.300000 8.521690 19.350000
X 13.530000 9.231831 19.350000
X 11.070000 10.652112 19.350000
X 12.300000 11.362253 19.350000
X 9.840000 12.782535 19.350000
X 11.070000 13.492676 19.350000
X 8.610000 14.912957 19.350000
X 9.840000 15.623098 19.350000
X 7.380000 17.043380 19.350000
X 8.610000 17.753521 19.350000
X 6.150000 19.173802 19.350000
X 7.380000 19.883943 19.350000
X 4.920000 21.304225 19.350000
X 6.150000 22.014366 19.350000
X 3.690000 23.434647 19.350000
X 4.920000 24.144788 19.350000
X 2.460000 25.565070 19.350000
X 3.690000 26.275211 19.350000
X 1.230000 27.695492 19.350000
X 2.460000 28.405633 19.350000
X 0.000000 29.825915 19.350000
X 1.230000 30.536056 19.350000
X -1.230000 31.956337 19.350000
X -0.000000 32.666478 19.350000
X -2.460000 34.086760 19.350000
X -1.230000 34.796901 19.350000
X -3.690000 36.217182 19.350000
X -2.460000 36.927323 19.350000
X -4.920000 38.347605 19.350000
X -3.690000 39.057746 19.350000
X -6.150000 40.478027 19.350000
X -4.920000 41.188168 19.350000
X -7.380000 42.608450 19.350000
X -6.150000 43.318591 19.350000
X -8.610000 44.738872 19.350000
X -7.380000 45.449013 19.350000
X -9.840000 46.869295 19.350000
X -8.610000 47.579436 19.350000
X -11.070000 48.999717 19.350000
X -9.840000 49.709858 19.350000
X -12.300000 51.130140 19.350000
X -11.070000 51.840281 19.350000
X 19.680000 0.000000 19.350000
X 20.910000 0.710141 19.350000
X 18.450000 2.130422 19.350000
X 19.680000 2.840563 19.350000
X 17.220000 4.260845 19.350000
X 18.450000 4.970986 19.350000
X 15.990000 6.391267 19.350000
X 17.220000 7.101408 19.350000
X 14.760000 8.521690 19.350000
X 15.990000 9.231831 19.350000
X 13.530000 10.652112 19.350000
X 14.760000 11.362253 19.350000
X 12.300000 12.782535 19.350000
X 13.530000 13.492676 19.350000
X 11.070000 14.912957 19.350000
X 12.300000 15.623098 19.350000
X 9.840000 17.043380 19.350000
X 11.070000 17.753521 19.350000
X 8.610000 19.173802 19.350000
X 9.840000 19.883943 19.350000
X 7.380000 21.304225 19.350000
X 8.610000 22.014366 19.350000
X 6.150000 23.434647 19.350000
X 7.380000 24.144788 19.350000
X 4.920000 25.565070 19.350000
X 6.150000 26.275211 19.350000
X 3.690000 27.695492 19.350000
X 4.920000 28.405633 19.350000
X 2.460000 29.825915 19.350000
X 3.690000 30.536056 19.350000
X 1.230000 31.956337 19.350000
X 2.460000 32.666478 19.350000
X 0.000000 34.086760 19.350000
X 1.230000 34.796901 19.350000
X -1.230000 36.217182 19.350000
X -0.000000 36.927323 19.350000
X -2.460000 38.347605 19.350000
X -1.230000 39.057746 19.350000
X -3.690000 40.478027 19.350000
X -2.460000 41.188168 19.350000
X -4.920000 42.608450 19.350000
X -3.690000 43.318591 19.350000
X -6.150000 44.738872 19.350000
X -4.920000 45.449013 19.350000
X -7.380000 46.869295 19.350000
X -6.150000 47.579436 19.350000
X -8.610000 48.999717 19.350000
X -7.380000 49.709858 19.350000
X -9.840000 51.130140 19.350000
X -8.610000 51.840281 19.350000
X 22.140000 0.000000 19.350000
X 23.370000 0.710141 19.350000
X 20.910000 2.130422 19.350000
X 22.140000 2.840563 19.350000
X 19.680000 4.260845 19.350000
X 20.910000 4.970986 19.350000
X 18.450000 6.391267 19.350000
X 19.680000 7.101408 19.350000
X 17.220000 8.521690 19.350000
X 18.450000 9.231831 19.350000
X 15.990000 10.652112 19.350000
X 17.220000 11.362253 19.350000
X 14.760000 12.782535 19.350000
X 15.990000 13.492676 19.350000
X 13.530000 14.912957 19.350000
X 14.760000 15.623098 19.350000
X 12.300000 17.043380 19.350000
X 13.530000 17.753521 19.350000
X 11.070000 19.173802 19.350000
X 12.300000 19.883943 19.350000
X 9.840000 21.304225 19.350000
X 11.070000 22.014366 19.350000
X 8.610000 23.434647 19.350000
X 9.840000 24.144788 19.350000
X 7.380000 25.565070 19.350000
X 8.610000 26.275211 19.350000
X 6.150000 27.695492 19.350000
X 7.380000 28.405633 19.350000
X 4.920000 29.825915 19.350000
X 6.150000 30.536056 19.350000
X 3.690000 31.956337 19.350000
X 4.920000 32.666478 19.350000
X 2.460000 34.086760 19.350000
X 3.690000 34.796901 19.350000
X 1.230000 36.217182 19.350000
X 2.460000 36.927323 19.350000
X 0.000000 38.347605 19.350000
X 1.230000 39.057746 19.350000
X -1.230000 40.478027 19.350000
X -0.000000 41.188168 19.350000
X -2.460000 42.608450 19.350000
X -1.230000 43.318591 19.350000
X -3.690000 44.738872 19.350000
X -2.460000 45.449013 19.350000
X -4.920000 46.869295 19.350000
X -3.690000 47.579436 19.350000
X -6.150000 48.999717 19.350000
X -4.920000 49.709858 19.350000
X -7.380000 51.130140 19.350000
X -6.150000 51.840281 19.350000
X 24.600000 0.000000 19.350000
X 25.830000 0.710141 19.350000
X 23.370000 2.130422 19.350000
X 24.600000 2.840563 19.350000
X 22.140000 4.260845 19.350000
X 23.370000 4.970986 19.350000
X 20.910000 6.391267 19.350000
X 22.140000 7.101408 19.350000
X 19.680000 8.521690 19.350000
X 20.910000 9.231831 19.350000
X 18.450000 10.652112 19.350000
X 19.680000 11.362253 19.350000
X 17.220000 12.782535 19.350000
X 18.450000 13.492676 19.350000
X 15.990000 14.912957 19.350000
X 17.220000 15.623098 19.350000
X 14.760000 17.043380 19.350000
X 15.990000 17.753521 19.350000
X 13.530000 19.173802 19.350000
X 14.760000 19.883943 19.350000
X 12.300000 21.304225 19.350000
X 13.530000 22.014366 19.350000
X 11.070000 23.434647 19.350000
X 12.300000 24.144788 19.350000
X 9.840000 25.565070 19.350000
X 11.070000 26.275211 19.350000
X 8.610000 27.695492 19.350000
X 9.840000 28.405633 19.350000
X 7.380000 29.825915 19.350000
X 8.610000 30.536056 19.350000
X 6.150000 31.956337 19.350000
X 7.380000 32.666478 19.350000
X 4.920000 34.086760 19.350000
X 6.150000 34.796901 19.350000
X 3.690000 36.217182 19.350000
X 4.920000 36.927323 19.350000
X 2.460000 38.347605 19.350000
X 3.690000 39.057746 19.350000
X 1.230000 40.478027 19.350000
X 2.460000 41.188168 19.350000
X 0.000000 42.608450 19.350000
X 1.230000 43.318591 19.350000
X -1.230000 44.738872 19.350000
X 0.000000 45.449013 19.350000
X -2.460000 46.869295 19.350000
X -1.230000 47.579436 19.350000
X -3.690000 48.999717 19.350000
X -2.460000 49.709858 19.350000
X -4.920000 51.130140 19.350000
X -3.690000 51.840281 19.350000
X 27.060000 0.000000 19.350000
X 28.290000 0.710141 19.350000
X 25.830000 2.130422 19.350000
X 27.060000 2.840563 19.350000
X 24.600000 4.260845 19.350000
X 25.830000 4.970986 19.350000
X 23.370000 6.391267 19.350000
X 24.600000 7.101408 19.350000
X 22.140000 8.521690 19.350000
X 23.370000 9.231831 19.350000
X 20.910000 10.652112 19.350000
X 22.140000 11.362253 19.350000
X 19.680000 12.782535 19.350000
X 20.910000 13.492676 19.350000
X 18.450000 14.912957 19.350000
X 19.680000 15.623098 19.350000
X 17.220000 17.043380 19.350000
X 18.450000 17.753521 19.350000
X 15.990000 19.173802 19.350000
X 17.220000 19.883943 19.350000
X 14.760000 21.304225 19.350000
X 15.990000 22.014366 19.350000
X 13.530000 23.434647 19.350000
X 14.760000 24.144788 19.350000
X 12.300000 25.565070 19.350000
X 13.530000 26.275211 19.350000
X 11.070000 27.695492 19.350000
X 12.300000 28.405633 19.350000
X 9.840000 29.825915 19.350000
X 11.070000 30.536056 19.350000
X 8.610000 31.956337 19.350000
X 9.840000 32.666478 19.350000
X 7.380000 34.086760 19.350000
X 8.610000 34.796901 19.350000
X 6.150000 36.217182 19.350000
X 7.380000 36.927323 19.350000
X 4.920000 38.347605 19.350000
X 6.150000 39.057746 19.350000
X 3.690000 40.478027 19.350000
X 4.920000 41.188168 19.350000
X 2.460000 42.608450 19.350000
X 3.690000 43.318591 19.350000
X 1.230000 44.738872 19.350000
X 2.460000 45.449013 19.350000
X 0.000000 46.869295 19.350000
X 1.230000 47.579436 19.350000
X -1.230000 48.999717 19.350000
X -0.000000 49.709858 19.350000
X -2.460000 51.130140 19.350000
X -1.230000 51.840281 19.350000
X 29.520000 0.000000 19.350000
X 30.750000 0.710141 19.350000
X 28.290000 2.130422 19.350000
X 29.520000 2.840563 19.350000
X 27.060000 4.260845 19.350000
X 28.290000 4.970986 19.350000
X 25.830000 6.391267 19.350000
X 27.060000 7.101408 19.350000
X 24.600000 8.521690 19.350000
X 25.830000 9.231831 19.350000
X 23.370000 10.652112 19.350000
X 24.600000 11.362253 19.350000
X 22.140000 12.782535 19.350000
X 23.370000 13.492676 19.350000
X 20.910000 14.912957 19.350000
X 22.140000 15.623098 19.350000
X 19.680000 17.043380 19.350000
X 20.910000 17.753521 19.350000
X 18.450000 19.173802 19.350000
X 19.680000 19.883943 19.350000
X 17.220000 21.304225 19.350000
X 18.450000 22.014366 19.350000
X 15.990000 23.434647 19.350000
X 17.220000 24.144788 19.350000
X 14.760000 25.565070 19.350000
X 15.990000 26.275211 19.350000
X 13.530000 27.695492 19.350000
X 14.760000 28.405633 19.350000
X 12.300000 29.825915 19.350000
X 13.530000 30.536056 19.350000
X 11.070000 31.956337 19.350000
X 12.300000 32.666478 19.350000
X 9.840000 34.086760 19.350000
X 11.070000 34.796901 19.350000
X 8.610000 36.217182 19.350000
X 9.840000 36.927323 19.350000
X 7.380000 38.347605 19.350000
X 8.610000 39.057746 19.350000
X 6.150000 40.478027 19.350000
X 7.380000 41.188168 19.350000
X 4.920000 42.608450 19.350000
X 6.150000 43.318591 19.350000
X 3.690000 44.738872 19.350000
X 4.920000 45.449013 19.350000
X 2.460000 46.869295 19.350000
X 3.690000 47.579436 19.350000
X 1.230000 48.999717 19.350000
X 2.460000 49.709858 19.350000
X 0.000000 51.130140 19.350000
X 1.230000 51.840281 19.350000
X 31.980000 0.000000 19.350000
X 33.210000 0.710141 19.350000
X 30.750000 2.130422 19.350000
X 31.980000 2.840563 19.350000
X 29.520000 4.260845 19.350000
X 30.750000 4.970986 19.350000
X 28.290000 6.391267 19.350000
X 29.520000 7.101408 19.350000
X 27.060000 8.521690 19.350000
X 28.290000 9.231831 19.350000
X 25.830000 10.652112 19.350000
X 27.060000 11.362253 19.350000
X 24.600000 12.782535 19.350000
X 25.830000 13.492676 19.350000
X 23.370000 14.912957 19.350000
X 24.600000 15.623098 19.350000
X 22.140000 17.043380 19.350000
X 23.370000 17.753521 19.350000
X 20.910000 19.173802 19.350000
X 22.140000 19.883943 19.350000
X 19.680000 21.304225 19.350000
X 20.910000 22.014366 19.350000
X 18.450000 23.434647 19.350000
X 19.680000 24.144788 19.350000
X 17.220000 25.565070 19.350000
X 18.450000 26.275211 19.350000
X 15.990000 27.695492 19.350000
X 17.220000 28.405633 19.350000
X 14.760000 29.825915 19.350000
X 15.990000 30.536056 19.350000
X 13.530000 31.956337 19.350000
X 14.760000 32.666478 19.350000
X 12.300000 34.086760 19.350000
X 13.530000 34.796901 19.350000
X 11.070000 36.217182 19.350000
X 12.300000 36.927323 19.350000
X 9.840000 38.347605 19.350000
X 11.070000 39.057746 19.350000
X 8.610000 40.478027 19.350000
X 9.840000 41.188168 19.350000
X 7.380000 42.608450 19.350000
X 8.610000 43.318591 19.350000
X 6.150000 44.738872 19.350000
X 7.380000 45.449013 19.350000
X 4.920000 46.869295 19.350000
X 6.150000 47.579436 19.350000
X 3.690000 48.999717 19.350000
X 4.920000 49.709858 19.350000
X 2.460000 51.130140 19.350000
X 3.690000 51.840281 19.350000
X 34.440000 0.000000 19.350000
X 35.670000 0.710141 19.350000
X 33.210000 2.130422 19.350000
X 34.440000 2.840563 19.350000
X 31.980000 4.260845 19.350000
X 33.210000 4.970986 19.350000
X 30.750000 6.391267 19.350000
X 31.980000 7.101408 19.350000
X 29.520000 8.521690 19.350000
X 30.750000 9.231831 19.350000
X 28.290000 10.652112 19.350000
X 29.520000 11.362253 19.350000
X 27.060000 12.782535 19.350000
X 28.290000 13.492676 19.350000
X 25.830000 14.912957 19.350000
X 27.060000 15.623098 19.350000
X 24.600000 17.043380 19.350000
X 25.830000 17.753521 19.350000
X 23.370000 19.173802 19.350000
X 24.600000 19.883943 19.350000
X 22.140000 21.304225 19.350000
X 23.370000 22.014366 19.350000
X 20.910000 23.434647 19.350000
X 22.140000 24.144788 19.350000
X 19.680000 25.565070 19.350000
X 20.910000 26.275211 19.350000
X 18.450000 27.695492 19.350000
X 19.680000 28.405633 19.350000
X 17.220000 29.825915 19.350000
X 18.450000 30.536056 19.350000
X 15.990000 31.956337 19.350000
X 17.220000 32.666478 19.350000
X 14.760000 34.086760 19.350000
X 15.990000 34.796901 19.350000
X 13.530000 36.217182 19.350000
X 14.760000 36.927323 19.350000
X 12.300000 38.347605 19.350000
X 13.530000 39.057746 19.350000
X 11.070000 40.478027 19.350000
X 12.300000 41.188168 19.350000
X 9.840000 42.608450 19.350000
X 11.070000 43.318591 19.350000
X 8.610000 44.738872 19.350000
X 9.840000 45.449013 19.350000
X 7.380000 46.869295 19.350000
X 8.610000 47.579436 19.350000
X 6.150000 48.999717 19.350000
X 7.380000 49.709858 19.350000
X 4.920000 51.130140 19.350000
X 6.150000 51.840281 19.350000
X 36.900000 0.000000 19.350000
X 38.130000 0.710141 19.350000
X 35.670000 2.130422 19.350000
X 36.900000 2.840563 19.350000
X 34.440000 4.260845 19.350000
X 35.670000 4.970986 19.350000
X 33.210000 6.391267 19.350000
X 34.440000 7.101408 19.350000
X 31.980000 8.521690 19.350000
X 33.210000 9.231831 19.350000
X 30.750000 10.652112 19.350000
X 31.980000 11.362253 19.350000
X 29.520000 12.782535 19.350000
X 30.750000 13.492676 19.350000
X 28.290000 14.912957 19.350000
X 29.520000 15.623098 19.350000
X 27.060000 17.043380 19.350000
X 28.290000 17.753521 19.350000
X 25.830000 19.173802 19.350000
X 27.060000 19.883943 19.350000
X 24.600000 21.304225 19.350000
X 25.830000 22.014366 19.350000
X 23.370000 23.434647 19.350000
X 24.600000 24.144788 19.350000
X 22.140000 25.565070 19.350000
X 23.370000 26.275211 19.350000
X 20.910000 27.695492 19.350000
X 22.140000 28.405633 19.350000
X 19.680000 29.825915 19.350000
X 20.910000 30.536056 19.350000
X 18.450000 31.956337 19.350000
X 19.680000 32.666478 19.350000
X 17.220000 34.086760 19.350000
X 18.450000 34.796901 19.350000
X 15.990000 36.217182 19.350000
X 17.220000 36.927323 19.350000
X 14.760000 38.347605 19.350000
X 15.990000 39.057746 19.350000
X 13.530000 40.478027 19.350000
X 14.760000 41.188168 19.350000
X 12.300000 42.608450 19.350000
X 13.530000 43.318591 19.350000
X 11.070000 44.738872 19.350000
X 12.300000 45.449013 19.350000
X 9.840000 46.869295 19.350000
X 11.070000 47.579436 19.350000
X 8.610000 48.999717 19.350000
X 9.840000 49.709858 19.350000
X 7.380000 51.130140 19.350000
X 8.610000 51.840281 19.350000
X 39.360000 0.000000 19.350000
X 40.590000 0.710141 19.350000
X 38.130000 2.130422 19.350000
X 39.360000 2.840563 19.350000
X 36.900000 4.260845 19.350000
X 38.130000 4.970986 19.350000
X 35.670000 6.391267 19.350000
X 36.900000 7.101408 19.350000
X 34.440000 8.521690 19.350000
X 35.670000 9.231831 19.350000
X 33.210000 10.652112 19.350000
X 34.440000 11.362253 19.350000
X 31.980000 12.782535 19.350000
X 33.210000 13.492676 19.350000
X 30.750000 14.912957 19.350000
X 31.980000 15.623098 19.350000
X 29.520000 17.043380 19.350000
X 30.750000 17.753521 19.350000
X 28.290000 19.173802 19.350000
X 29.520000 19.883943 19.350000
X 27.060000 21.304225 19.350000
X 28.290000 22.014366 19.350000
X 25.830000 23.434647 19.350000
X 27.060000 24.144788 19.350000
X 24.600000 25.565070 19.350000
X 25.830000 26.275211 19.350000
X 23.370000 27.695492 19.350000
X 24.600000 28.405633 19.350000
X 22.140000 29.825915 19.350000
X 23.370000 30.536056 19.350000
X 20.910000 31.956337 19.350000
X 22.140000 32.666478 19.350000
X 19.680000 34.086760 19.350000
X 20.910000 34.796901 19.350000
X 18.450000 36.217182 19.350000
X 19.680000 36.927323 19.350000
X 17.220000 38.347605 19.350000
X 18.450000 39.057746 19.350000
X 15.990000 40.478027 19.350000
X 17.220000 41.188168 19.350000
X 14.760000 42.608450 19.350000
X 15.990000 43.318591 19.350000
X 13.530000 44.738872 19.350000
X 14.760000 45.449013 19.350000
X 12.300000 46.869295 19.350000
X 13.530000 47.579436 19.350000
X 11.070000 48.999717 19.350000
X 12.300000 49.709858 19.350000
X 9.840000 51.130140 19.350000
X 11.070000 51.840281 19.350000
X 41.820000 0.000000 19.350000
X 43.050000 0.710141 19.350000
X 40.590000 2.130422 19.350000
X 41.820000 2.840563 19.350000
X 39.360000 4.260845 19.350000
X 40.590000 4.970986 19.350000
X 38.130000 6.391267 19.350000
X 39.360000 7.101408 19.350000
X 36.900000 8.521690 19.350000
X 38.130000 9.231831 19.350000
X 35.670000 10.652112 19.350000
X 36.900000 11.362253 19.350000
X 34.440000 12.782535 19.350000
X 35.670000 13.492676 19.350000
X 33.210000 14.912957 19.350000
X 34.440000 15.623098 19.350000
X 31.980000 17.043380 19.350000
X 33.210000 17.753521 19.350000
X 30.750000 19.173802 19.350000
X 31.980000 19.883943 19.350000
X 29.520000 21.304225 19.350000
X 30.750000 22.014366 19.350000
X 28.290000 23.434647 19.350000
X 29.520000 24.144788 19.350000
X 27.060000 25.565070 19.350000
X 28.290000 26.275211 19.350000
X 25.830000 27.695492 19.350000
X 27.060000 28.405633 19.350000
X 24.600000 29.825915 19.350000
X 25.830000 30.536056 19.350000
X 23.370000 31.956337 19.350000
X 24.600000 32.666478 19.350000
X 22.140000 34.086760 19.350000
X 23.370000 34.796901 19.350000
X 20.910000 36.217182 19.350000
X 22.140000 36.927323 19.350000
X 19.680000 38.347605 19.350000
X 20.910000 39.057746 19.350000
X 18.450000 40.478027 19.350000
X 19.680000 41.188168 19.350000
X 17.220000 42.608450 19.350000
X 18.450000 43.318591 19.350000
X 15.990000 44.738872 19.350000
X 17.220000 45.449013 19.350000
X 14.760000 46.869295 19.350000
X 15.990000 47.579436 19.350000
X 13.530000 48.999717 19.350000
X 14.760000 49.709858 19.350000
X 12.300000 51.130140 19.350000
X 13.530000 51.840281 19.350000
X 44.280000 0.000000 19.350000
X 45.510000 0.710141 19.350000
X 43.050000 2.130422 19.350000
X 44.280000 2.840563 19.350000
X 41.820000 4.260845 19.350000
X 43.050000 4.970986 19.350000
X 40.590000 6.391267 19.350000
X 41.820000 7.101408 19.350000
X 39.360000 8.521690 19.350000
X 40.590000 9.231831 19.350000
X 38.130000 10.652112 19.350000
X 39.360000 11.362253 19.350000
X 36.900000 12.782535 19.350000
X 38.130000 13.492676 19.350000
X 35.670000 14.912957 19.350000
X 36.900000 15.623098 19.350000
X 34.440000 17.043380 19.350000
X 35.670000 17.753521 19.350000
X 33.210000 19.173802 19.350000
X 34.440000 19.883943 19.350000
X 31.980000 21.304225 19.350000
X 33.210000 22.014366 19.350000
X 30.750000 23.434647 19.350000
X 31.980000 24.144788 19.350000
X 29.520000 25.565070 19.350000
X 30.750000 26.275211 19.350000
X 28.290000 27.695492 19.350000
X 29.520000 28.405633 19.350000
X 27.060000 29.825915 19.350000
X 28.290000 30.536056 19.350000
X 25.830000 31.956337 19.350000
X 27.060000 32.666478 19.350000
X 24.600000 34.086760 19.350000
X 25.830000 34.796901 19.350000
X 23.370000 36.217182 19.350000
X 24.600000 36.927323 19.350000
X 22.140000 38.347605 19.350000
X 23.370000 39.057746 19.350000
X 20.910000 40.478027 19.350000
X 22.140000 41.188168 19.350000
X 19.680000 42.608450 19.350000
X 20.910000 43.318591 19.350000
X 18.450000 44.738872 19.350000
X 19.680000 45.449013 19.350000
X 17.220000 46.869295 19.350000
X 18.450000 47.579436 19.350000
X 15.990000 48.999717 19.350000
X 17.220000 49.709858 19.350000
X 14.760000 51.130140 19.350000
X 15.990000 51.840281 19.350000
X 46.740000 0.000000 19.350000
X 47.970000 0.710141 19.350000
X 45.510000 2.130422 19.350000
X 46.740000 2.840563 19.350000
X 44.280000 4.260845 19.350000
X 45.510000 4.970986 19.350000
X 43.050000 6.391267 19.350000
X 44.280000 7.101408 19.350000
X 41.820000 8.521690 19.350000
X 43.050000 9.231831 19.350000
X 40.590000 10.652112 19.350000
X 41.820000 11.362253 19.350000
X 39.360000 12.782535 19.350000
X 40.590000 13.492676 19.350000
X 38.130000 14.912957 19.350000
X 39.360000 15.623098 19.350000
X 36.900000 17.043380 19.350000
X 38.130000 17.753521 19.350000
X 35.670000 19.173802 19.350000
X 36.900000 19.883943 19.350000
X 34.440000 21.304225 19.350000
X 35.670000 22.014366 19.350000
X 33.210000 23.434647 19.350000
X 34.440000 24.144788 19.350000
X 31.980000 25.565070 19.350000
X 33.210000 26.275211 19.350000
X 30.750000 27.695492 19.350000
X 31.980000 28.405633 19.350000
X 29.520000 29.825915 19.350000
X 30.750000 30.536056 19.350000
X 28.290000 31.956337 19.350000
X 29.520000 32.666478 19.350000
X 27.060000 34.086760 19.350000
X 28.290000 34.796901 19.350000
X 25.830000 36.217182 19.350000
X 27.060000 36.927323 19.350000
X 24.600000 38.347605 19.350000
X 25.830000 39.057746 19.350000
X 23.370000 40.478027 19.350000
X 24.600000 41.188168 19.350000
X 22.140000 42.608450 19.350000
X 23.370000 43.318591 19.350000
X 20.910000 44.738872 19.350000
X 22.140000 45.449013 19.350000
X 19.680000 46.869295 19.350000
X 20.910000 47.579436 19.350000
X 18.450000 48.999717 19.350000
X 19.680000 49.709858 19.350000
X 17.220000 51.130140 19.350000
X 18.450000 51.840281 19.350000
X 49.200000 0.000000 19.350000
X 50.430000 0.710141 19.350000
X 47.970000 2.130422 19.350000
X 49.200000 2.840563 19.350000
X 46.740000 4.260845 19.350000
X 47.970000 4.970986 19.350000
X 45.510000 6.391267 19.350000
X 46.740000 7.101408 19.350000
X 44.280000 8.521690 19.350000
X 45.510000 9.231831 19.350000
X 43.050000 10.652112 19.350000
X 44.280000 11.362253 19.350000
X 41.820000 12.782535 19.350000
X 43.050000 13.492676 19.350000
X 40.590000 14.912957 19.350000
X 41.820000 15.623098 19.350000
X 39.360000 17.043380 19.350000
X 40.590000 17.753521 19.350000
X 38.130000 19.173802 19.350000
X 39.360000 19.883943 19.350000
X 36.900000 21.304225 19.350000
X 38.130000 22.014366 19.350000
X 35.670000 23.434647 19.350000
X 36.900000 24.144788 19.350000
X 34.440000 25.565070 19.350000
X 35.670000 26.275211 19.350000
X 33.210000 27.695492 19.350000
X 34.440000 28.405633 19.350000
X 31.980000 29.825915 19.350000
X 33.210000 30.536056 19.350000
X 30.750000 31.956337 19.350000
X 31.980000 32.666478 19.350000
X 29.520000 34.086760 19.350000
X 30.750000 34.796901 19.350000
X 28.290000 36.217182 19.350000
X 29.520000 36.927323 19.350000
X 27.060000 38.347605 19.350000
X 28.290000 39.057746 19.350000
X 25.830000 40.478027 19.350000
X 27.060000 41.188168 19.350000
X 24.600000 42.608450 19.350000
X 25.830000 43.318591 19.350000
X 23.370000 44.738872 19.350000
X 24.600000 45.449013 19.350000
X 22.140000 46.869295 19.350000
X 23.370000 47.579436 19.350000
X 20.910000 48.999717 19.350000
X 22.140000 49.709858 19.350000
X 19.680000 51.130140 19.350000
X 20.910000 51.840281 19.350000
X 51.660000 0.000000 19.350000
X 52.890000 0.710141 19.350000
X 50.430000 2.130422 19.350000
X 51.660000 2.840563 19.350000
X 49.200000 4.260845 19.350000
X 50.430000 4.970986 19.350000
X 47.970000 6.391267 19.350000
X 49.200000 7.101408 19.350000
X 46.740000 8.521690 19.350000
X 47.970000 9.231831 19.350000
X 45.510000 10.652112 19.350000
X 46.740000 11.362253 19.350000
X 44.280000 12.782535 19.350000
X 45.510000 13.492676 19.350000
X 43.050000 14.912957 19.350000
X 44.280000 15.623098 19.350000
X 41.820000 17.043380 19.350000
X 43.050000 17.753521 19.350000
X 40.590000 19.173802 19.350000
X 41.820000 19.883943 19.350000
X 39.360000 21.304225 19.350000
X 40.590000 22.014366 19.350000
X 38.130000 23.434647 19.350000
X 39.360000 24.144788 19.350000
X 36.900000 25.565070 19.350000
X 38.130000 26.275211 19.350000
X 35.670000 27.695492 19.350000
X 36.900000 28.405633 19.350000
X 34.440000 29.825915 19.350000
X 35.670000 30.536056 19.350000
X 33.210000 31.956337 19.350000
X 34.440000 32.666478 19.350000
X 31.980000 34.086760 19.350000
X 33.210000 34.796901 19.350000
X 30.750000 36.217182 19.350000
X 31.980000 36.927323 19.350000
X 29.520000 38.347605 19.350000
X 30.750000 39.057746 19.350000
X 28.290000 40.478027 19.350000
X 29.520000 41.188168 19.350000
X 27.060000 42.608450 19.350000
X 28.290000 43.318591 19.350000
X 25.830000 44.738872 19.350000
X 27.060000 45.449013 19.350000
X 24.600000 46.869295 19.350000
X 25.830000 47.579436 19.350000
X 23.370000 48.999717 19.350000
X 24.600000 49.709858 19.350000
X 22.140000 51.130140 19.350000
X 23.370000 51.840281 19.350000
X 54.120000 0.000000 19.350000
X 55.350000 0.710141 19.350000
X 52.890000 2.130422 19.350000
X 54.120000 2.840563 19.350000
X 51.660000 4.260845 19.350000
X 52.890000 4.970986 19.350000
X 50.430000 6.391267 19.350000
X 51.660000 7.101408 19.350000
X 49.200000 8.521690 19.350000
X 50.430000 9.231831 19.350000
X 47.970000 10.652112 19.350000
X 49.200000 11.362253 19.350000
X 46.740000 12.782535 19.350000
X 47.970000 13.492676 19.350000
X 45.510000 14.912957 19.350000
X 46.740000 15.623098 19.350000
X 44.280000 17.043380 19.350000
X 45.510000 17.753521 19.350000
X 43.050000 19.173802 19.350000
X 44.280000 19.883943 19.350000
X 41.820000 21.304225 19.350000
X 43.050000 22.014366 19.350000
X 40.590000 23.434647 19.350000
X 41.820000 24.144788 19.350000
X 39.360000 25.565070 19.350000
X 40.590000 26.275211 19.350000
X 38.130000 27.695492 19.350000
X 39.360000 28.405633 19.350000
X 36.900000 29.825915 19.350000
X 38.130000 30.536056 19.350000
X 35.670000 31.956337 19.350000
X 36.900000 32.666478 19.350000
X 34.440000 34.086760 19.350000
X 35.670000 34.796901 19.350000
X 33.210000 36.217182 19.350000
X 34.440000 36.927323 19.350000
X 31.980000 38.347605 19.350000
X 33.210000 39.057746 19.350000
X 30.750000 40.478027 19.350000
X 31.980000 41.188168 19.350000
X 29.520000 42.608450 19.350000
X 30.750000 43.318591 19.350000
X 28.290000 44.738872 19.350000
X 29.520000 45.449013 19.350000
X 27.060000 46.869295 19.350000
X 28.290000 47.579436 19.350000
X 25.830000 48.999717 19.350000
X 27.060000 49.709858 19.350000
X 24.600000 51.130140 19.350000
X 25.830000 51.840281 19.350000
X 56.580000 0.000000 19.350000
X 57.810000 0.710141 19.350000
X 55.350000 2.130422 19.350000
X 56.580000 2.840563 19.350000
X 54.120000 4.260845 19.350000
X 55.350000 4.970986 19.350000
X 52.890000 6.391267 19.350000
X 54.120000 7.101408 19.350000
X 51.660000 8.521690 19.350000
X 52.890000 9.231831 19.350000
X 50.430000 10.652112 19.350000
X 51.660000 11.362253 19.350000
X 49.200000 12.782535 19.350000
X 50.430000 13.492676 19.350000
X 47.970000 14.912957 19.350000
X 49.200000 15.623098 19.350000
X 46.740000 17.043380 19.350000
X 47.970000 17.753521 19.350000
X 45.510000 19.173802 19.350000
X 46.740000 19.883943 19.350000
X 44.280000 21.304225 19.350000
X 45.510000 22.014366 19.350000
X 43.050000 23.434647 19.350000
X 44.280000 24.144788 19.350000
X 41.820000 25.565070 19.350000
X 43.050000 26.275211 19.350000
X 40.590000 27.695492 19.350000
X 41.820000 28.405633 19.350000
X 39.360000 29.825915 19.350000
X 40.590000 30.536056 19.350000
X 38.130000 31.956337 19.350000
X 39.360000 32.666478 19.350000
X 36.900000 34.086760 19.350000
X 38.130000 34.796901 19.350000
X 35.670000 36.217182 19.350000
X 36.900000 36.927323 19.350000
X 34.440000 38.347605 19.350000
X 35.670000 39.057746 19.350000
X 33.210000 40.478027 19.350000
X 34.440000 41.188168 19.350000
X 31.980000 42.608450 19.350000
X 33.210000 43.318591 19.350000
X 30.750000 44.738872 19.350000
X 31.980000 45.449013 19.350000
X 29.520000 46.869295 19.350000
X 30.750000 47.579436 19.350000
X 28.290000 48.999717 19.350000
X 29.520000 49.709858 19.350000
X 27.060000 51.130140 19.350000
X 28.290000 51.840281 19.350000
X 59.040000 0.000000 19.350000
X 60.270000 0.710141 19.350000
X 57.810000 2.130422 19.350000
X 59.040000 2.840563 19.350000
X 56.580000 4.260845 19.350000
X 57.810000 4.970986 19.350000
X 55.350000 6.391267 19.350000
X 56.580000 7.101408 19.350000
X 54.120000 8.521690 19.350000
X 55.350000 9.231831 19.350000
X 52.890000 10.652112 19.350000
X 54.120000 11.362253 19.350000
X 51.660000 12.782535 19.350000
X 52.890000 13.492676 19.350000
X 50.430000 14.912957 19.350000
X 51.660000 15.623098 19.350000
X 49.200000 17.043380 19.350000
X 50.430000 17.753521 19.350000
X 47.970000 19.173802 19.350000
X 49.200000 19.883943 19.350000
X 46.740000 21.304225 19.350000
X 47.970000 22.014366 19.350000
X 45.510000 23.434647 19.350000
X 46.740000 24.144788 19.350000
X 44.280000 25.565070 19.350000
X 45.510000 26.275211 19.350000
X 43.050000 27.695492 19.350000
X 44.280000 28.405633 19.350000
X 41.820000 29.825915 19.350000
X 43.050000 30.536056 19.350000
X 40.590000 31.956337 19.350000
X 41.820000 32.666478 19.350000
X 39.360000 34.086760 19.350000
X 40.590000 34.796901 19.350000
X 38.130000 36.217182 19.350000
X 39.360000 36.927323 19.350000
X 36.900000 38.347605 19.350000
X 38.130000 39.057746 19.350000
X 35.670000 40.478027 19.350000
X 36.900000 41.188168 19.350000
X 34.440000 42.608450 19.350000
X 35.670000 43.318591 19.350000
X 33.210000 44.738872 19.350000
X 34.440000 45.449013 19.350000
X 31.980000 46.869295 19.350000
X 33.210000 47.579436 19.350000
X 30.750000 48.999717 19.350000
X 31.980000 49.709858 19.350000
X 29.520000 51.130140 19.350000
X 30.750000 51.840281 19.350000
O 10.507392 25.642748 22.855925
C 10.967213 26.574773 23.488816
C 12.438561 26.940075 23.504990
C 13.483141 25.966293 23.489043
C 14.839261 26.391731 23.490829
C 15.892063 25.444115 23.493583
C 13.221722 24.573717 23.503448
C 14.267738 23.638241 23.496478
C 15.601828 24.065558 23.493771
C 16.645449 23.121690 23.498152
C 17.982668 23.550421 23.512303
C 18.279939 24.923413 23.514242
C 17.239446 25.872303 23.499962
C 17.537411 27.245331 23.494058
C 16.498453 28.189502 23.490092
C 15.156000 27.767453 23.496162
C 14.128748 28.719993 23.506405
C 12.787574 28.312412 23.516482
N 10.139766 27.430482 24.186057
C 8.679063 27.279301 24.275107
C 8.250261 26.141567 25.228809
O 6.820921 25.971992 25.140140
C 6.007817 26.513992 26.204119
C 6.010421 28.066816 26.185387
O 7.158092 28.592134 26.885975
C 7.104162 28.525931 28.322644
C 8.382598 29.194848 28.871018
O 8.424835 29.113120 30.313329
C 7.439892 29.872650 31.045251
C 6.380151 28.899373 31.615009
O 5.262224 29.645996 32.131984
C 5.495237 30.408386 33.328821
C 4.151571 31.037373 33.778323
O 3.690610 32.018818 32.828443
C 4.484588 33.206012 32.689022
C 3.771250 34.142374 31.817040
C 3.167197 34.890382 31.083648
H 12.210600 24.185030 23.524367
H 14.034541 22.577423 23.501429
H 16.420489 22.059660 23.493372
H 18.787329 22.819540 23.520740
H 19.316108 25.247551 23.526476
H 18.570581 27.580929 23.493075
H 16.738527 29.248920 23.485998
H 14.368134 29.779688 23.497790
H 12.017387 29.078341 23.492778
H 10.588355 28.167500 24.708789
H 8.249648 28.231176 24.606060
H 8.288597 27.059345 23.271380
H 8.746932 25.216526 24.908276
H 8.574103 26.359347 26.254928
H 4.972987 26.182743 26.054144
H 6.329778 26.127881 27.178144
H 6.007961 28.405175 25.141014
H 5.085080 28.433727 26.646749
H 6.220349 29.059430 28.692333
H 7.067126 27.487622 28.674154
H 9.254323 28.679830 28.447687
H 8.421321 30.240886 28.540731
H 7.926632 30.396315 31.875975
H 6.954567 30.624325 30.409222
H 6.831558 28.275566 32.396917
H 6.031332 28.231755 30.819288
H 5.857298 29.750701 34.129556
H 6.248182 31.189214 33.170594
H 3.407263 30.236638 33.875640
H 4.276005 31.495135 34.768525
H 5.458382 32.981228 32.237594
H 4.646949 33.681139 33.664561
H 2.620588 35.534476 30.431355
