22408
Supported IFF graphene + GAFF2 Pyrene-PEG5 + one-sided OPC water; OPC M sites hidden
C 0.000000 0.000000 5.000000
C 1.230000 0.710141 5.000000
C -1.230000 2.130422 5.000000
C 0.000000 2.840563 5.000000
C -2.460000 4.260845 5.000000
C -1.230000 4.970986 5.000000
C -3.690000 6.391267 5.000000
C -2.460000 7.101408 5.000000
C -4.920000 8.521690 5.000000
C -3.690000 9.231831 5.000000
C -6.150000 10.652112 5.000000
C -4.920000 11.362253 5.000000
C -7.380000 12.782535 5.000000
C -6.150000 13.492676 5.000000
C -8.610000 14.912957 5.000000
C -7.380000 15.623098 5.000000
C -9.840000 17.043380 5.000000
C -8.610000 17.753521 5.000000
C -11.070000 19.173802 5.000000
C -9.840000 19.883943 5.000000
C -12.300000 21.304225 5.000000
C -11.070000 22.014366 5.000000
C -13.530000 23.434647 5.000000
C -12.300000 24.144788 5.000000
C -14.760000 25.565070 5.000000
C -13.530000 26.275211 5.000000
C -15.990000 27.695492 5.000000
C -14.760000 28.405633 5.000000
C -17.220000 29.825915 5.000000
C -15.990000 30.536056 5.000000
C -18.450000 31.956337 5.000000
C -17.220000 32.666478 5.000000
C -19.680000 34.086760 5.000000
C -18.450000 34.796901 5.000000
C -20.910000 36.217182 5.000000
C -19.680000 36.927323 5.000000
C -22.140000 38.347605 5.000000
C -20.910000 39.057746 5.000000
C -23.370000 40.478027 5.000000
C -22.140000 41.188168 5.000000
C -24.600000 42.608450 5.000000
C -23.370000 43.318591 5.000000
C -25.830000 44.738872 5.000000
C -24.600000 45.449013 5.000000
C -27.060000 46.869295 5.000000
C -25.830000 47.579436 5.000000
C -28.290000 48.999717 5.000000
C -27.060000 49.709858 5.000000
C -29.520000 51.130140 5.000000
C -28.290000 51.840281 5.000000
C 2.460000 0.000000 5.000000
C 3.690000 0.710141 5.000000
C 1.230000 2.130422 5.000000
C 2.460000 2.840563 5.000000
C 0.000000 4.260845 5.000000
C 1.230000 4.970986 5.000000
C -1.230000 6.391267 5.000000
C 0.000000 7.101408 5.000000
C -2.460000 8.521690 5.000000
C -1.230000 9.231831 5.000000
C -3.690000 10.652112 5.000000
C -2.460000 11.362253 5.000000
C -4.920000 12.782535 5.000000
C -3.690000 13.492676 5.000000
C -6.150000 14.912957 5.000000
C -4.920000 15.623098 5.000000
C -7.380000 17.043380 5.000000
C -6.150000 17.753521 5.000000
C -8.610000 19.173802 5.000000
C -7.380000 19.883943 5.000000
C -9.840000 21.304225 5.000000
C -8.610000 22.014366 5.000000
C -11.070000 23.434647 5.000000
C -9.840000 24.144788 5.000000
C -12.300000 25.565070 5.000000
C -11.070000 26.275211 5.000000
C -13.530000 27.695492 5.000000
C -12.300000 28.405633 5.000000
C -14.760000 29.825915 5.000000
C -13.530000 30.536056 5.000000
C -15.990000 31.956337 5.000000
C -14.760000 32.666478 5.000000
C -17.220000 34.086760 5.000000
C -15.990000 34.796901 5.000000
C -18.450000 36.217182 5.000000
C -17.220000 36.927323 5.000000
C -19.680000 38.347605 5.000000
C -18.450000 39.057746 5.000000
C -20.910000 40.478027 5.000000
C -19.680000 41.188168 5.000000
C -22.140000 42.608450 5.000000
C -20.910000 43.318591 5.000000
C -23.370000 44.738872 5.000000
C -22.140000 45.449013 5.000000
C -24.600000 46.869295 5.000000
C -23.370000 47.579436 5.000000
C -25.830000 48.999717 5.000000
C -24.600000 49.709858 5.000000
C -27.060000 51.130140 5.000000
C -25.830000 51.840281 5.000000
C 4.920000 0.000000 5.000000
C 6.150000 0.710141 5.000000
C 3.690000 2.130422 5.000000
C 4.920000 2.840563 5.000000
C 2.460000 4.260845 5.000000
C 3.690000 4.970986 5.000000
C 1.230000 6.391267 5.000000
C 2.460000 7.101408 5.000000
C 0.000000 8.521690 5.000000
C 1.230000 9.231831 5.000000
C -1.230000 10.652112 5.000000
C -0.000000 11.362253 5.000000
C -2.460000 12.782535 5.000000
C -1.230000 13.492676 5.000000
C -3.690000 14.912957 5.000000
C -2.460000 15.623098 5.000000
C -4.920000 17.043380 5.000000
C -3.690000 17.753521 5.000000
C -6.150000 19.173802 5.000000
C -4.920000 19.883943 5.000000
C -7.380000 21.304225 5.000000
C -6.150000 22.014366 5.000000
C -8.610000 23.434647 5.000000
C -7.380000 24.144788 5.000000
C -9.840000 25.565070 5.000000
C -8.610000 26.275211 5.000000
C -11.070000 27.695492 5.000000
C -9.840000 28.405633 5.000000
C -12.300000 29.825915 5.000000
C -11.070000 30.536056 5.000000
C -13.530000 31.956337 5.000000
C -12.300000 32.666478 5.000000
C -14.760000 34.086760 5.000000
C -13.530000 34.796901 5.000000
C -15.990000 36.217182 5.000000
C -14.760000 36.927323 5.000000
C -17.220000 38.347605 5.000000
C -15.990000 39.057746 5.000000
C -18.450000 40.478027 5.000000
C -17.220000 41.188168 5.000000
C -19.680000 42.608450 5.000000
C -18.450000 43.318591 5.000000
C -20.910000 44.738872 5.000000
C -19.680000 45.449013 5.000000
C -22.140000 46.869295 5.000000
C -20.910000 47.579436 5.000000
C -23.370000 48.999717 5.000000
C -22.140000 49.709858 5.000000
C -24.600000 51.130140 5.000000
C -23.370000 51.840281 5.000000
C 7.380000 0.000000 5.000000
C 8.610000 0.710141 5.000000
C 6.150000 2.130422 5.000000
C 7.380000 2.840563 5.000000
C 4.920000 4.260845 5.000000
C 6.150000 4.970986 5.000000
C 3.690000 6.391267 5.000000
C 4.920000 7.101408 5.000000
C 2.460000 8.521690 5.000000
C 3.690000 9.231831 5.000000
C 1.230000 10.652112 5.000000
C 2.460000 11.362253 5.000000
C 0.000000 12.782535 5.000000
C 1.230000 13.492676 5.000000
C -1.230000 14.912957 5.000000
C 0.000000 15.623098 5.000000
C -2.460000 17.043380 5.000000
C -1.230000 17.753521 5.000000
C -3.690000 19.173802 5.000000
C -2.460000 19.883943 5.000000
C -4.920000 21.304225 5.000000
C -3.690000 22.014366 5.000000
C -6.150000 23.434647 5.000000
C -4.920000 24.144788 5.000000
C -7.380000 25.565070 5.000000
C -6.150000 26.275211 5.000000
C -8.610000 27.695492 5.000000
C -7.380000 28.405633 5.000000
C -9.840000 29.825915 5.000000
C -8.610000 30.536056 5.000000
C -11.070000 31.956337 5.000000
C -9.840000 32.666478 5.000000
C -12.300000 34.086760 5.000000
C -11.070000 34.796901 5.000000
C -13.530000 36.217182 5.000000
C -12.300000 36.927323 5.000000
C -14.760000 38.347605 5.000000
C -13.530000 39.057746 5.000000
C -15.990000 40.478027 5.000000
C -14.760000 41.188168 5.000000
C -17.220000 42.608450 5.000000
C -15.990000 43.318591 5.000000
C -18.450000 44.738872 5.000000
C -17.220000 45.449013 5.000000
C -19.680000 46.869295 5.000000
C -18.450000 47.579436 5.000000
C -20.910000 48.999717 5.000000
C -19.680000 49.709858 5.000000
C -22.140000 51.130140 5.000000
C -20.910000 51.840281 5.000000
C 9.840000 0.000000 5.000000
C 11.070000 0.710141 5.000000
C 8.610000 2.130422 5.000000
C 9.840000 2.840563 5.000000
C 7.380000 4.260845 5.000000
C 8.610000 4.970986 5.000000
C 6.150000 6.391267 5.000000
C 7.380000 7.101408 5.000000
C 4.920000 8.521690 5.000000
C 6.150000 9.231831 5.000000
C 3.690000 10.652112 5.000000
C 4.920000 11.362253 5.000000
C 2.460000 12.782535 5.000000
C 3.690000 13.492676 5.000000
C 1.230000 14.912957 5.000000
C 2.460000 15.623098 5.000000
C 0.000000 17.043380 5.000000
C 1.230000 17.753521 5.000000
C -1.230000 19.173802 5.000000
C -0.000000 19.883943 5.000000
C -2.460000 21.304225 5.000000
C -1.230000 22.014366 5.000000
C -3.690000 23.434647 5.000000
C -2.460000 24.144788 5.000000
C -4.920000 25.565070 5.000000
C -3.690000 26.275211 5.000000
C -6.150000 27.695492 5.000000
C -4.920000 28.405633 5.000000
C -7.380000 29.825915 5.000000
C -6.150000 30.536056 5.000000
C -8.610000 31.956337 5.000000
C -7.380000 32.666478 5.000000
C -9.840000 34.086760 5.000000
C -8.610000 34.796901 5.000000
C -11.070000 36.217182 5.000000
C -9.840000 36.927323 5.000000
C -12.300000 38.347605 5.000000
C -11.070000 39.057746 5.000000
C -13.530000 40.478027 5.000000
C -12.300000 41.188168 5.000000
C -14.760000 42.608450 5.000000
C -13.530000 43.318591 5.000000
C -15.990000 44.738872 5.000000
C -14.760000 45.449013 5.000000
C -17.220000 46.869295 5.000000
C -15.990000 47.579436 5.000000
C -18.450000 48.999717 5.000000
C -17.220000 49.709858 5.000000
C -19.680000 51.130140 5.000000
C -18.450000 51.840281 5.000000
C 12.300000 0.000000 5.000000
C 13.530000 0.710141 5.000000
C 11.070000 2.130422 5.000000
C 12.300000 2.840563 5.000000
C 9.840000 4.260845 5.000000
C 11.070000 4.970986 5.000000
C 8.610000 6.391267 5.000000
C 9.840000 7.101408 5.000000
C 7.380000 8.521690 5.000000
C 8.610000 9.231831 5.000000
C 6.150000 10.652112 5.000000
C 7.380000 11.362253 5.000000
C 4.920000 12.782535 5.000000
C 6.150000 13.492676 5.000000
C 3.690000 14.912957 5.000000
C 4.920000 15.623098 5.000000
C 2.460000 17.043380 5.000000
C 3.690000 17.753521 5.000000
C 1.230000 19.173802 5.000000
C 2.460000 19.883943 5.000000
C 0.000000 21.304225 5.000000
C 1.230000 22.014366 5.000000
C -1.230000 23.434647 5.000000
C 0.000000 24.144788 5.000000
C -2.460000 25.565070 5.000000
C -1.230000 26.275211 5.000000
C -3.690000 27.695492 5.000000
C -2.460000 28.405633 5.000000
C -4.920000 29.825915 5.000000
C -3.690000 30.536056 5.000000
C -6.150000 31.956337 5.000000
C -4.920000 32.666478 5.000000
C -7.380000 34.086760 5.000000
C -6.150000 34.796901 5.000000
C -8.610000 36.217182 5.000000
C -7.380000 36.927323 5.000000
C -9.840000 38.347605 5.000000
C -8.610000 39.057746 5.000000
C -11.070000 40.478027 5.000000
C -9.840000 41.188168 5.000000
C -12.300000 42.608450 5.000000
C -11.070000 43.318591 5.000000
C -13.530000 44.738872 5.000000
C -12.300000 45.449013 5.000000
C -14.760000 46.869295 5.000000
C -13.530000 47.579436 5.000000
C -15.990000 48.999717 5.000000
C -14.760000 49.709858 5.000000
C -17.220000 51.130140 5.000000
C -15.990000 51.840281 5.000000
C 14.760000 0.000000 5.000000
C 15.990000 0.710141 5.000000
C 13.530000 2.130422 5.000000
C 14.760000 2.840563 5.000000
C 12.300000 4.260845 5.000000
C 13.530000 4.970986 5.000000
C 11.070000 6.391267 5.000000
C 12.300000 7.101408 5.000000
C 9.840000 8.521690 5.000000
C 11.070000 9.231831 5.000000
C 8.610000 10.652112 5.000000
C 9.840000 11.362253 5.000000
C 7.380000 12.782535 5.000000
C 8.610000 13.492676 5.000000
C 6.150000 14.912957 5.000000
C 7.380000 15.623098 5.000000
C 4.920000 17.043380 5.000000
C 6.150000 17.753521 5.000000
C 3.690000 19.173802 5.000000
C 4.920000 19.883943 5.000000
C 2.460000 21.304225 5.000000
C 3.690000 22.014366 5.000000
C 1.230000 23.434647 5.000000
C 2.460000 24.144788 5.000000
C 0.000000 25.565070 5.000000
C 1.230000 26.275211 5.000000
C -1.230000 27.695492 5.000000
C -0.000000 28.405633 5.000000
C -2.460000 29.825915 5.000000
C -1.230000 30.536056 5.000000
C -3.690000 31.956337 5.000000
C -2.460000 32.666478 5.000000
C -4.920000 34.086760 5.000000
C -3.690000 34.796901 5.000000
C -6.150000 36.217182 5.000000
C -4.920000 36.927323 5.000000
C -7.380000 38.347605 5.000000
C -6.150000 39.057746 5.000000
C -8.610000 40.478027 5.000000
C -7.380000 41.188168 5.000000
C -9.840000 42.608450 5.000000
C -8.610000 43.318591 5.000000
C -11.070000 44.738872 5.000000
C -9.840000 45.449013 5.000000
C -12.300000 46.869295 5.000000
C -11.070000 47.579436 5.000000
C -13.530000 48.999717 5.000000
C -12.300000 49.709858 5.000000
C -14.760000 51.130140 5.000000
C -13.530000 51.840281 5.000000
C 17.220000 0.000000 5.000000
C 18.450000 0.710141 5.000000
C 15.990000 2.130422 5.000000
C 17.220000 2.840563 5.000000
C 14.760000 4.260845 5.000000
C 15.990000 4.970986 5.000000
C 13.530000 6.391267 5.000000
C 14.760000 7.101408 5.000000
C 12.300000 8.521690 5.000000
C 13.530000 9.231831 5.000000
C 11.070000 10.652112 5.000000
C 12.300000 11.362253 5.000000
C 9.840000 12.782535 5.000000
C 11.070000 13.492676 5.000000
C 8.610000 14.912957 5.000000
C 9.840000 15.623098 5.000000
C 7.380000 17.043380 5.000000
C 8.610000 17.753521 5.000000
C 6.150000 19.173802 5.000000
C 7.380000 19.883943 5.000000
C 4.920000 21.304225 5.000000
C 6.150000 22.014366 5.000000
C 3.690000 23.434647 5.000000
C 4.920000 24.144788 5.000000
C 2.460000 25.565070 5.000000
C 3.690000 26.275211 5.000000
C 1.230000 27.695492 5.000000
C 2.460000 28.405633 5.000000
C 0.000000 29.825915 5.000000
C 1.230000 30.536056 5.000000
C -1.230000 31.956337 5.000000
C -0.000000 32.666478 5.000000
C -2.460000 34.086760 5.000000
C -1.230000 34.796901 5.000000
C -3.690000 36.217182 5.000000
C -2.460000 36.927323 5.000000
C -4.920000 38.347605 5.000000
C -3.690000 39.057746 5.000000
C -6.150000 40.478027 5.000000
C -4.920000 41.188168 5.000000
C -7.380000 42.608450 5.000000
C -6.150000 43.318591 5.000000
C -8.610000 44.738872 5.000000
C -7.380000 45.449013 5.000000
C -9.840000 46.869295 5.000000
C -8.610000 47.579436 5.000000
C -11.070000 48.999717 5.000000
C -9.840000 49.709858 5.000000
C -12.300000 51.130140 5.000000
C -11.070000 51.840281 5.000000
C 19.680000 0.000000 5.000000
C 20.910000 0.710141 5.000000
C 18.450000 2.130422 5.000000
C 19.680000 2.840563 5.000000
C 17.220000 4.260845 5.000000
C 18.450000 4.970986 5.000000
C 15.990000 6.391267 5.000000
C 17.220000 7.101408 5.000000
C 14.760000 8.521690 5.000000
C 15.990000 9.231831 5.000000
C 13.530000 10.652112 5.000000
C 14.760000 11.362253 5.000000
C 12.300000 12.782535 5.000000
C 13.530000 13.492676 5.000000
C 11.070000 14.912957 5.000000
C 12.300000 15.623098 5.000000
C 9.840000 17.043380 5.000000
C 11.070000 17.753521 5.000000
C 8.610000 19.173802 5.000000
C 9.840000 19.883943 5.000000
C 7.380000 21.304225 5.000000
C 8.610000 22.014366 5.000000
C 6.150000 23.434647 5.000000
C 7.380000 24.144788 5.000000
C 4.920000 25.565070 5.000000
C 6.150000 26.275211 5.000000
C 3.690000 27.695492 5.000000
C 4.920000 28.405633 5.000000
C 2.460000 29.825915 5.000000
C 3.690000 30.536056 5.000000
C 1.230000 31.956337 5.000000
C 2.460000 32.666478 5.000000
C 0.000000 34.086760 5.000000
C 1.230000 34.796901 5.000000
C -1.230000 36.217182 5.000000
C -0.000000 36.927323 5.000000
C -2.460000 38.347605 5.000000
C -1.230000 39.057746 5.000000
C -3.690000 40.478027 5.000000
C -2.460000 41.188168 5.000000
C -4.920000 42.608450 5.000000
C -3.690000 43.318591 5.000000
C -6.150000 44.738872 5.000000
C -4.920000 45.449013 5.000000
C -7.380000 46.869295 5.000000
C -6.150000 47.579436 5.000000
C -8.610000 48.999717 5.000000
C -7.380000 49.709858 5.000000
C -9.840000 51.130140 5.000000
C -8.610000 51.840281 5.000000
C 22.140000 0.000000 5.000000
C 23.370000 0.710141 5.000000
C 20.910000 2.130422 5.000000
C 22.140000 2.840563 5.000000
C 19.680000 4.260845 5.000000
C 20.910000 4.970986 5.000000
C 18.450000 6.391267 5.000000
C 19.680000 7.101408 5.000000
C 17.220000 8.521690 5.000000
C 18.450000 9.231831 5.000000
C 15.990000 10.652112 5.000000
C 17.220000 11.362253 5.000000
C 14.760000 12.782535 5.000000
C 15.990000 13.492676 5.000000
C 13.530000 14.912957 5.000000
C 14.760000 15.623098 5.000000
C 12.300000 17.043380 5.000000
C 13.530000 17.753521 5.000000
C 11.070000 19.173802 5.000000
C 12.300000 19.883943 5.000000
C 9.840000 21.304225 5.000000
C 11.070000 22.014366 5.000000
C 8.610000 23.434647 5.000000
C 9.840000 24.144788 5.000000
C 7.380000 25.565070 5.000000
C 8.610000 26.275211 5.000000
C 6.150000 27.695492 5.000000
C 7.380000 28.405633 5.000000
C 4.920000 29.825915 5.000000
C 6.150000 30.536056 5.000000
C 3.690000 31.956337 5.000000
C 4.920000 32.666478 5.000000
C 2.460000 34.086760 5.000000
C 3.690000 34.796901 5.000000
C 1.230000 36.217182 5.000000
C 2.460000 36.927323 5.000000
C 0.000000 38.347605 5.000000
C 1.230000 39.057746 5.000000
C -1.230000 40.478027 5.000000
C -0.000000 41.188168 5.000000
C -2.460000 42.608450 5.000000
C -1.230000 43.318591 5.000000
C -3.690000 44.738872 5.000000
C -2.460000 45.449013 5.000000
C -4.920000 46.869295 5.000000
C -3.690000 47.579436 5.000000
C -6.150000 48.999717 5.000000
C -4.920000 49.709858 5.000000
C -7.380000 51.130140 5.000000
C -6.150000 51.840281 5.000000
C 24.600000 0.000000 5.000000
C 25.830000 0.710141 5.000000
C 23.370000 2.130422 5.000000
C 24.600000 2.840563 5.000000
C 22.140000 4.260845 5.000000
C 23.370000 4.970986 5.000000
C 20.910000 6.391267 5.000000
C 22.140000 7.101408 5.000000
C 19.680000 8.521690 5.000000
C 20.910000 9.231831 5.000000
C 18.450000 10.652112 5.000000
C 19.680000 11.362253 5.000000
C 17.220000 12.782535 5.000000
C 18.450000 13.492676 5.000000
C 15.990000 14.912957 5.000000
C 17.220000 15.623098 5.000000
C 14.760000 17.043380 5.000000
C 15.990000 17.753521 5.000000
C 13.530000 19.173802 5.000000
C 14.760000 19.883943 5.000000
C 12.300000 21.304225 5.000000
C 13.530000 22.014366 5.000000
C 11.070000 23.434647 5.000000
C 12.300000 24.144788 5.000000
C 9.840000 25.565070 5.000000
C 11.070000 26.275211 5.000000
C 8.610000 27.695492 5.000000
C 9.840000 28.405633 5.000000
C 7.380000 29.825915 5.000000
C 8.610000 30.536056 5.000000
C 6.150000 31.956337 5.000000
C 7.380000 32.666478 5.000000
C 4.920000 34.086760 5.000000
C 6.150000 34.796901 5.000000
C 3.690000 36.217182 5.000000
C 4.920000 36.927323 5.000000
C 2.460000 38.347605 5.000000
C 3.690000 39.057746 5.000000
C 1.230000 40.478027 5.000000
C 2.460000 41.188168 5.000000
C 0.000000 42.608450 5.000000
C 1.230000 43.318591 5.000000
C -1.230000 44.738872 5.000000
C 0.000000 45.449013 5.000000
C -2.460000 46.869295 5.000000
C -1.230000 47.579436 5.000000
C -3.690000 48.999717 5.000000
C -2.460000 49.709858 5.000000
C -4.920000 51.130140 5.000000
C -3.690000 51.840281 5.000000
C 27.060000 0.000000 5.000000
C 28.290000 0.710141 5.000000
C 25.830000 2.130422 5.000000
C 27.060000 2.840563 5.000000
C 24.600000 4.260845 5.000000
C 25.830000 4.970986 5.000000
C 23.370000 6.391267 5.000000
C 24.600000 7.101408 5.000000
C 22.140000 8.521690 5.000000
C 23.370000 9.231831 5.000000
C 20.910000 10.652112 5.000000
C 22.140000 11.362253 5.000000
C 19.680000 12.782535 5.000000
C 20.910000 13.492676 5.000000
C 18.450000 14.912957 5.000000
C 19.680000 15.623098 5.000000
C 17.220000 17.043380 5.000000
C 18.450000 17.753521 5.000000
C 15.990000 19.173802 5.000000
C 17.220000 19.883943 5.000000
C 14.760000 21.304225 5.000000
C 15.990000 22.014366 5.000000
C 13.530000 23.434647 5.000000
C 14.760000 24.144788 5.000000
C 12.300000 25.565070 5.000000
C 13.530000 26.275211 5.000000
C 11.070000 27.695492 5.000000
C 12.300000 28.405633 5.000000
C 9.840000 29.825915 5.000000
C 11.070000 30.536056 5.000000
C 8.610000 31.956337 5.000000
C 9.840000 32.666478 5.000000
C 7.380000 34.086760 5.000000
C 8.610000 34.796901 5.000000
C 6.150000 36.217182 5.000000
C 7.380000 36.927323 5.000000
C 4.920000 38.347605 5.000000
C 6.150000 39.057746 5.000000
C 3.690000 40.478027 5.000000
C 4.920000 41.188168 5.000000
C 2.460000 42.608450 5.000000
C 3.690000 43.318591 5.000000
C 1.230000 44.738872 5.000000
C 2.460000 45.449013 5.000000
C 0.000000 46.869295 5.000000
C 1.230000 47.579436 5.000000
C -1.230000 48.999717 5.000000
C -0.000000 49.709858 5.000000
C -2.460000 51.130140 5.000000
C -1.230000 51.840281 5.000000
C 29.520000 0.000000 5.000000
C 30.750000 0.710141 5.000000
C 28.290000 2.130422 5.000000
C 29.520000 2.840563 5.000000
C 27.060000 4.260845 5.000000
C 28.290000 4.970986 5.000000
C 25.830000 6.391267 5.000000
C 27.060000 7.101408 5.000000
C 24.600000 8.521690 5.000000
C 25.830000 9.231831 5.000000
C 23.370000 10.652112 5.000000
C 24.600000 11.362253 5.000000
C 22.140000 12.782535 5.000000
C 23.370000 13.492676 5.000000
C 20.910000 14.912957 5.000000
C 22.140000 15.623098 5.000000
C 19.680000 17.043380 5.000000
C 20.910000 17.753521 5.000000
C 18.450000 19.173802 5.000000
C 19.680000 19.883943 5.000000
C 17.220000 21.304225 5.000000
C 18.450000 22.014366 5.000000
C 15.990000 23.434647 5.000000
C 17.220000 24.144788 5.000000
C 14.760000 25.565070 5.000000
C 15.990000 26.275211 5.000000
C 13.530000 27.695492 5.000000
C 14.760000 28.405633 5.000000
C 12.300000 29.825915 5.000000
C 13.530000 30.536056 5.000000
C 11.070000 31.956337 5.000000
C 12.300000 32.666478 5.000000
C 9.840000 34.086760 5.000000
C 11.070000 34.796901 5.000000
C 8.610000 36.217182 5.000000
C 9.840000 36.927323 5.000000
C 7.380000 38.347605 5.000000
C 8.610000 39.057746 5.000000
C 6.150000 40.478027 5.000000
C 7.380000 41.188168 5.000000
C 4.920000 42.608450 5.000000
C 6.150000 43.318591 5.000000
C 3.690000 44.738872 5.000000
C 4.920000 45.449013 5.000000
C 2.460000 46.869295 5.000000
C 3.690000 47.579436 5.000000
C 1.230000 48.999717 5.000000
C 2.460000 49.709858 5.000000
C 0.000000 51.130140 5.000000
C 1.230000 51.840281 5.000000
C 31.980000 0.000000 5.000000
C 33.210000 0.710141 5.000000
C 30.750000 2.130422 5.000000
C 31.980000 2.840563 5.000000
C 29.520000 4.260845 5.000000
C 30.750000 4.970986 5.000000
C 28.290000 6.391267 5.000000
C 29.520000 7.101408 5.000000
C 27.060000 8.521690 5.000000
C 28.290000 9.231831 5.000000
C 25.830000 10.652112 5.000000
C 27.060000 11.362253 5.000000
C 24.600000 12.782535 5.000000
C 25.830000 13.492676 5.000000
C 23.370000 14.912957 5.000000
C 24.600000 15.623098 5.000000
C 22.140000 17.043380 5.000000
C 23.370000 17.753521 5.000000
C 20.910000 19.173802 5.000000
C 22.140000 19.883943 5.000000
C 19.680000 21.304225 5.000000
C 20.910000 22.014366 5.000000
C 18.450000 23.434647 5.000000
C 19.680000 24.144788 5.000000
C 17.220000 25.565070 5.000000
C 18.450000 26.275211 5.000000
C 15.990000 27.695492 5.000000
C 17.220000 28.405633 5.000000
C 14.760000 29.825915 5.000000
C 15.990000 30.536056 5.000000
C 13.530000 31.956337 5.000000
C 14.760000 32.666478 5.000000
C 12.300000 34.086760 5.000000
C 13.530000 34.796901 5.000000
C 11.070000 36.217182 5.000000
C 12.300000 36.927323 5.000000
C 9.840000 38.347605 5.000000
C 11.070000 39.057746 5.000000
C 8.610000 40.478027 5.000000
C 9.840000 41.188168 5.000000
C 7.380000 42.608450 5.000000
C 8.610000 43.318591 5.000000
C 6.150000 44.738872 5.000000
C 7.380000 45.449013 5.000000
C 4.920000 46.869295 5.000000
C 6.150000 47.579436 5.000000
C 3.690000 48.999717 5.000000
C 4.920000 49.709858 5.000000
C 2.460000 51.130140 5.000000
C 3.690000 51.840281 5.000000
C 34.440000 0.000000 5.000000
C 35.670000 0.710141 5.000000
C 33.210000 2.130422 5.000000
C 34.440000 2.840563 5.000000
C 31.980000 4.260845 5.000000
C 33.210000 4.970986 5.000000
C 30.750000 6.391267 5.000000
C 31.980000 7.101408 5.000000
C 29.520000 8.521690 5.000000
C 30.750000 9.231831 5.000000
C 28.290000 10.652112 5.000000
C 29.520000 11.362253 5.000000
C 27.060000 12.782535 5.000000
C 28.290000 13.492676 5.000000
C 25.830000 14.912957 5.000000
C 27.060000 15.623098 5.000000
C 24.600000 17.043380 5.000000
C 25.830000 17.753521 5.000000
C 23.370000 19.173802 5.000000
C 24.600000 19.883943 5.000000
C 22.140000 21.304225 5.000000
C 23.370000 22.014366 5.000000
C 20.910000 23.434647 5.000000
C 22.140000 24.144788 5.000000
C 19.680000 25.565070 5.000000
C 20.910000 26.275211 5.000000
C 18.450000 27.695492 5.000000
C 19.680000 28.405633 5.000000
C 17.220000 29.825915 5.000000
C 18.450000 30.536056 5.000000
C 15.990000 31.956337 5.000000
C 17.220000 32.666478 5.000000
C 14.760000 34.086760 5.000000
C 15.990000 34.796901 5.000000
C 13.530000 36.217182 5.000000
C 14.760000 36.927323 5.000000
C 12.300000 38.347605 5.000000
C 13.530000 39.057746 5.000000
C 11.070000 40.478027 5.000000
C 12.300000 41.188168 5.000000
C 9.840000 42.608450 5.000000
C 11.070000 43.318591 5.000000
C 8.610000 44.738872 5.000000
C 9.840000 45.449013 5.000000
C 7.380000 46.869295 5.000000
C 8.610000 47.579436 5.000000
C 6.150000 48.999717 5.000000
C 7.380000 49.709858 5.000000
C 4.920000 51.130140 5.000000
C 6.150000 51.840281 5.000000
C 36.900000 0.000000 5.000000
C 38.130000 0.710141 5.000000
C 35.670000 2.130422 5.000000
C 36.900000 2.840563 5.000000
C 34.440000 4.260845 5.000000
C 35.670000 4.970986 5.000000
C 33.210000 6.391267 5.000000
C 34.440000 7.101408 5.000000
C 31.980000 8.521690 5.000000
C 33.210000 9.231831 5.000000
C 30.750000 10.652112 5.000000
C 31.980000 11.362253 5.000000
C 29.520000 12.782535 5.000000
C 30.750000 13.492676 5.000000
C 28.290000 14.912957 5.000000
C 29.520000 15.623098 5.000000
C 27.060000 17.043380 5.000000
C 28.290000 17.753521 5.000000
C 25.830000 19.173802 5.000000
C 27.060000 19.883943 5.000000
C 24.600000 21.304225 5.000000
C 25.830000 22.014366 5.000000
C 23.370000 23.434647 5.000000
C 24.600000 24.144788 5.000000
C 22.140000 25.565070 5.000000
C 23.370000 26.275211 5.000000
C 20.910000 27.695492 5.000000
C 22.140000 28.405633 5.000000
C 19.680000 29.825915 5.000000
C 20.910000 30.536056 5.000000
C 18.450000 31.956337 5.000000
C 19.680000 32.666478 5.000000
C 17.220000 34.086760 5.000000
C 18.450000 34.796901 5.000000
C 15.990000 36.217182 5.000000
C 17.220000 36.927323 5.000000
C 14.760000 38.347605 5.000000
C 15.990000 39.057746 5.000000
C 13.530000 40.478027 5.000000
C 14.760000 41.188168 5.000000
C 12.300000 42.608450 5.000000
C 13.530000 43.318591 5.000000
C 11.070000 44.738872 5.000000
C 12.300000 45.449013 5.000000
C 9.840000 46.869295 5.000000
C 11.070000 47.579436 5.000000
C 8.610000 48.999717 5.000000
C 9.840000 49.709858 5.000000
C 7.380000 51.130140 5.000000
C 8.610000 51.840281 5.000000
C 39.360000 0.000000 5.000000
C 40.590000 0.710141 5.000000
C 38.130000 2.130422 5.000000
C 39.360000 2.840563 5.000000
C 36.900000 4.260845 5.000000
C 38.130000 4.970986 5.000000
C 35.670000 6.391267 5.000000
C 36.900000 7.101408 5.000000
C 34.440000 8.521690 5.000000
C 35.670000 9.231831 5.000000
C 33.210000 10.652112 5.000000
C 34.440000 11.362253 5.000000
C 31.980000 12.782535 5.000000
C 33.210000 13.492676 5.000000
C 30.750000 14.912957 5.000000
C 31.980000 15.623098 5.000000
C 29.520000 17.043380 5.000000
C 30.750000 17.753521 5.000000
C 28.290000 19.173802 5.000000
C 29.520000 19.883943 5.000000
C 27.060000 21.304225 5.000000
C 28.290000 22.014366 5.000000
C 25.830000 23.434647 5.000000
C 27.060000 24.144788 5.000000
C 24.600000 25.565070 5.000000
C 25.830000 26.275211 5.000000
C 23.370000 27.695492 5.000000
C 24.600000 28.405633 5.000000
C 22.140000 29.825915 5.000000
C 23.370000 30.536056 5.000000
C 20.910000 31.956337 5.000000
C 22.140000 32.666478 5.000000
C 19.680000 34.086760 5.000000
C 20.910000 34.796901 5.000000
C 18.450000 36.217182 5.000000
C 19.680000 36.927323 5.000000
C 17.220000 38.347605 5.000000
C 18.450000 39.057746 5.000000
C 15.990000 40.478027 5.000000
C 17.220000 41.188168 5.000000
C 14.760000 42.608450 5.000000
C 15.990000 43.318591 5.000000
C 13.530000 44.738872 5.000000
C 14.760000 45.449013 5.000000
C 12.300000 46.869295 5.000000
C 13.530000 47.579436 5.000000
C 11.070000 48.999717 5.000000
C 12.300000 49.709858 5.000000
C 9.840000 51.130140 5.000000
C 11.070000 51.840281 5.000000
C 41.820000 0.000000 5.000000
C 43.050000 0.710141 5.000000
C 40.590000 2.130422 5.000000
C 41.820000 2.840563 5.000000
C 39.360000 4.260845 5.000000
C 40.590000 4.970986 5.000000
C 38.130000 6.391267 5.000000
C 39.360000 7.101408 5.000000
C 36.900000 8.521690 5.000000
C 38.130000 9.231831 5.000000
C 35.670000 10.652112 5.000000
C 36.900000 11.362253 5.000000
C 34.440000 12.782535 5.000000
C 35.670000 13.492676 5.000000
C 33.210000 14.912957 5.000000
C 34.440000 15.623098 5.000000
C 31.980000 17.043380 5.000000
C 33.210000 17.753521 5.000000
C 30.750000 19.173802 5.000000
C 31.980000 19.883943 5.000000
C 29.520000 21.304225 5.000000
C 30.750000 22.014366 5.000000
C 28.290000 23.434647 5.000000
C 29.520000 24.144788 5.000000
C 27.060000 25.565070 5.000000
C 28.290000 26.275211 5.000000
C 25.830000 27.695492 5.000000
C 27.060000 28.405633 5.000000
C 24.600000 29.825915 5.000000
C 25.830000 30.536056 5.000000
C 23.370000 31.956337 5.000000
C 24.600000 32.666478 5.000000
C 22.140000 34.086760 5.000000
C 23.370000 34.796901 5.000000
C 20.910000 36.217182 5.000000
C 22.140000 36.927323 5.000000
C 19.680000 38.347605 5.000000
C 20.910000 39.057746 5.000000
C 18.450000 40.478027 5.000000
C 19.680000 41.188168 5.000000
C 17.220000 42.608450 5.000000
C 18.450000 43.318591 5.000000
C 15.990000 44.738872 5.000000
C 17.220000 45.449013 5.000000
C 14.760000 46.869295 5.000000
C 15.990000 47.579436 5.000000
C 13.530000 48.999717 5.000000
C 14.760000 49.709858 5.000000
C 12.300000 51.130140 5.000000
C 13.530000 51.840281 5.000000
C 44.280000 0.000000 5.000000
C 45.510000 0.710141 5.000000
C 43.050000 2.130422 5.000000
C 44.280000 2.840563 5.000000
C 41.820000 4.260845 5.000000
C 43.050000 4.970986 5.000000
C 40.590000 6.391267 5.000000
C 41.820000 7.101408 5.000000
C 39.360000 8.521690 5.000000
C 40.590000 9.231831 5.000000
C 38.130000 10.652112 5.000000
C 39.360000 11.362253 5.000000
C 36.900000 12.782535 5.000000
C 38.130000 13.492676 5.000000
C 35.670000 14.912957 5.000000
C 36.900000 15.623098 5.000000
C 34.440000 17.043380 5.000000
C 35.670000 17.753521 5.000000
C 33.210000 19.173802 5.000000
C 34.440000 19.883943 5.000000
C 31.980000 21.304225 5.000000
C 33.210000 22.014366 5.000000
C 30.750000 23.434647 5.000000
C 31.980000 24.144788 5.000000
C 29.520000 25.565070 5.000000
C 30.750000 26.275211 5.000000
C 28.290000 27.695492 5.000000
C 29.520000 28.405633 5.000000
C 27.060000 29.825915 5.000000
C 28.290000 30.536056 5.000000
C 25.830000 31.956337 5.000000
C 27.060000 32.666478 5.000000
C 24.600000 34.086760 5.000000
C 25.830000 34.796901 5.000000
C 23.370000 36.217182 5.000000
C 24.600000 36.927323 5.000000
C 22.140000 38.347605 5.000000
C 23.370000 39.057746 5.000000
C 20.910000 40.478027 5.000000
C 22.140000 41.188168 5.000000
C 19.680000 42.608450 5.000000
C 20.910000 43.318591 5.000000
C 18.450000 44.738872 5.000000
C 19.680000 45.449013 5.000000
C 17.220000 46.869295 5.000000
C 18.450000 47.579436 5.000000
C 15.990000 48.999717 5.000000
C 17.220000 49.709858 5.000000
C 14.760000 51.130140 5.000000
C 15.990000 51.840281 5.000000
C 46.740000 0.000000 5.000000
C 47.970000 0.710141 5.000000
C 45.510000 2.130422 5.000000
C 46.740000 2.840563 5.000000
C 44.280000 4.260845 5.000000
C 45.510000 4.970986 5.000000
C 43.050000 6.391267 5.000000
C 44.280000 7.101408 5.000000
C 41.820000 8.521690 5.000000
C 43.050000 9.231831 5.000000
C 40.590000 10.652112 5.000000
C 41.820000 11.362253 5.000000
C 39.360000 12.782535 5.000000
C 40.590000 13.492676 5.000000
C 38.130000 14.912957 5.000000
C 39.360000 15.623098 5.000000
C 36.900000 17.043380 5.000000
C 38.130000 17.753521 5.000000
C 35.670000 19.173802 5.000000
C 36.900000 19.883943 5.000000
C 34.440000 21.304225 5.000000
C 35.670000 22.014366 5.000000
C 33.210000 23.434647 5.000000
C 34.440000 24.144788 5.000000
C 31.980000 25.565070 5.000000
C 33.210000 26.275211 5.000000
C 30.750000 27.695492 5.000000
C 31.980000 28.405633 5.000000
C 29.520000 29.825915 5.000000
C 30.750000 30.536056 5.000000
C 28.290000 31.956337 5.000000
C 29.520000 32.666478 5.000000
C 27.060000 34.086760 5.000000
C 28.290000 34.796901 5.000000
C 25.830000 36.217182 5.000000
C 27.060000 36.927323 5.000000
C 24.600000 38.347605 5.000000
C 25.830000 39.057746 5.000000
C 23.370000 40.478027 5.000000
C 24.600000 41.188168 5.000000
C 22.140000 42.608450 5.000000
C 23.370000 43.318591 5.000000
C 20.910000 44.738872 5.000000
C 22.140000 45.449013 5.000000
C 19.680000 46.869295 5.000000
C 20.910000 47.579436 5.000000
C 18.450000 48.999717 5.000000
C 19.680000 49.709858 5.000000
C 17.220000 51.130140 5.000000
C 18.450000 51.840281 5.000000
C 49.200000 0.000000 5.000000
C 50.430000 0.710141 5.000000
C 47.970000 2.130422 5.000000
C 49.200000 2.840563 5.000000
C 46.740000 4.260845 5.000000
C 47.970000 4.970986 5.000000
C 45.510000 6.391267 5.000000
C 46.740000 7.101408 5.000000
C 44.280000 8.521690 5.000000
C 45.510000 9.231831 5.000000
C 43.050000 10.652112 5.000000
C 44.280000 11.362253 5.000000
C 41.820000 12.782535 5.000000
C 43.050000 13.492676 5.000000
C 40.590000 14.912957 5.000000
C 41.820000 15.623098 5.000000
C 39.360000 17.043380 5.000000
C 40.590000 17.753521 5.000000
C 38.130000 19.173802 5.000000
C 39.360000 19.883943 5.000000
C 36.900000 21.304225 5.000000
C 38.130000 22.014366 5.000000
C 35.670000 23.434647 5.000000
C 36.900000 24.144788 5.000000
C 34.440000 25.565070 5.000000
C 35.670000 26.275211 5.000000
C 33.210000 27.695492 5.000000
C 34.440000 28.405633 5.000000
C 31.980000 29.825915 5.000000
C 33.210000 30.536056 5.000000
C 30.750000 31.956337 5.000000
C 31.980000 32.666478 5.000000
C 29.520000 34.086760 5.000000
C 30.750000 34.796901 5.000000
C 28.290000 36.217182 5.000000
C 29.520000 36.927323 5.000000
C 27.060000 38.347605 5.000000
C 28.290000 39.057746 5.000000
C 25.830000 40.478027 5.000000
C 27.060000 41.188168 5.000000
C 24.600000 42.608450 5.000000
C 25.830000 43.318591 5.000000
C 23.370000 44.738872 5.000000
C 24.600000 45.449013 5.000000
C 22.140000 46.869295 5.000000
C 23.370000 47.579436 5.000000
C 20.910000 48.999717 5.000000
C 22.140000 49.709858 5.000000
C 19.680000 51.130140 5.000000
C 20.910000 51.840281 5.000000
C 51.660000 0.000000 5.000000
C 52.890000 0.710141 5.000000
C 50.430000 2.130422 5.000000
C 51.660000 2.840563 5.000000
C 49.200000 4.260845 5.000000
C 50.430000 4.970986 5.000000
C 47.970000 6.391267 5.000000
C 49.200000 7.101408 5.000000
C 46.740000 8.521690 5.000000
C 47.970000 9.231831 5.000000
C 45.510000 10.652112 5.000000
C 46.740000 11.362253 5.000000
C 44.280000 12.782535 5.000000
C 45.510000 13.492676 5.000000
C 43.050000 14.912957 5.000000
C 44.280000 15.623098 5.000000
C 41.820000 17.043380 5.000000
C 43.050000 17.753521 5.000000
C 40.590000 19.173802 5.000000
C 41.820000 19.883943 5.000000
C 39.360000 21.304225 5.000000
C 40.590000 22.014366 5.000000
C 38.130000 23.434647 5.000000
C 39.360000 24.144788 5.000000
C 36.900000 25.565070 5.000000
C 38.130000 26.275211 5.000000
C 35.670000 27.695492 5.000000
C 36.900000 28.405633 5.000000
C 34.440000 29.825915 5.000000
C 35.670000 30.536056 5.000000
C 33.210000 31.956337 5.000000
C 34.440000 32.666478 5.000000
C 31.980000 34.086760 5.000000
C 33.210000 34.796901 5.000000
C 30.750000 36.217182 5.000000
C 31.980000 36.927323 5.000000
C 29.520000 38.347605 5.000000
C 30.750000 39.057746 5.000000
C 28.290000 40.478027 5.000000
C 29.520000 41.188168 5.000000
C 27.060000 42.608450 5.000000
C 28.290000 43.318591 5.000000
C 25.830000 44.738872 5.000000
C 27.060000 45.449013 5.000000
C 24.600000 46.869295 5.000000
C 25.830000 47.579436 5.000000
C 23.370000 48.999717 5.000000
C 24.600000 49.709858 5.000000
C 22.140000 51.130140 5.000000
C 23.370000 51.840281 5.000000
C 54.120000 0.000000 5.000000
C 55.350000 0.710141 5.000000
C 52.890000 2.130422 5.000000
C 54.120000 2.840563 5.000000
C 51.660000 4.260845 5.000000
C 52.890000 4.970986 5.000000
C 50.430000 6.391267 5.000000
C 51.660000 7.101408 5.000000
C 49.200000 8.521690 5.000000
C 50.430000 9.231831 5.000000
C 47.970000 10.652112 5.000000
C 49.200000 11.362253 5.000000
C 46.740000 12.782535 5.000000
C 47.970000 13.492676 5.000000
C 45.510000 14.912957 5.000000
C 46.740000 15.623098 5.000000
C 44.280000 17.043380 5.000000
C 45.510000 17.753521 5.000000
C 43.050000 19.173802 5.000000
C 44.280000 19.883943 5.000000
C 41.820000 21.304225 5.000000
C 43.050000 22.014366 5.000000
C 40.590000 23.434647 5.000000
C 41.820000 24.144788 5.000000
C 39.360000 25.565070 5.000000
C 40.590000 26.275211 5.000000
C 38.130000 27.695492 5.000000
C 39.360000 28.405633 5.000000
C 36.900000 29.825915 5.000000
C 38.130000 30.536056 5.000000
C 35.670000 31.956337 5.000000
C 36.900000 32.666478 5.000000
C 34.440000 34.086760 5.000000
C 35.670000 34.796901 5.000000
C 33.210000 36.217182 5.000000
C 34.440000 36.927323 5.000000
C 31.980000 38.347605 5.000000
C 33.210000 39.057746 5.000000
C 30.750000 40.478027 5.000000
C 31.980000 41.188168 5.000000
C 29.520000 42.608450 5.000000
C 30.750000 43.318591 5.000000
C 28.290000 44.738872 5.000000
C 29.520000 45.449013 5.000000
C 27.060000 46.869295 5.000000
C 28.290000 47.579436 5.000000
C 25.830000 48.999717 5.000000
C 27.060000 49.709858 5.000000
C 24.600000 51.130140 5.000000
C 25.830000 51.840281 5.000000
C 56.580000 0.000000 5.000000
C 57.810000 0.710141 5.000000
C 55.350000 2.130422 5.000000
C 56.580000 2.840563 5.000000
C 54.120000 4.260845 5.000000
C 55.350000 4.970986 5.000000
C 52.890000 6.391267 5.000000
C 54.120000 7.101408 5.000000
C 51.660000 8.521690 5.000000
C 52.890000 9.231831 5.000000
C 50.430000 10.652112 5.000000
C 51.660000 11.362253 5.000000
C 49.200000 12.782535 5.000000
C 50.430000 13.492676 5.000000
C 47.970000 14.912957 5.000000
C 49.200000 15.623098 5.000000
C 46.740000 17.043380 5.000000
C 47.970000 17.753521 5.000000
C 45.510000 19.173802 5.000000
C 46.740000 19.883943 5.000000
C 44.280000 21.304225 5.000000
C 45.510000 22.014366 5.000000
C 43.050000 23.434647 5.000000
C 44.280000 24.144788 5.000000
C 41.820000 25.565070 5.000000
C 43.050000 26.275211 5.000000
C 40.590000 27.695492 5.000000
C 41.820000 28.405633 5.000000
C 39.360000 29.825915 5.000000
C 40.590000 30.536056 5.000000
C 38.130000 31.956337 5.000000
C 39.360000 32.666478 5.000000
C 36.900000 34.086760 5.000000
C 38.130000 34.796901 5.000000
C 35.670000 36.217182 5.000000
C 36.900000 36.927323 5.000000
C 34.440000 38.347605 5.000000
C 35.670000 39.057746 5.000000
C 33.210000 40.478027 5.000000
C 34.440000 41.188168 5.000000
C 31.980000 42.608450 5.000000
C 33.210000 43.318591 5.000000
C 30.750000 44.738872 5.000000
C 31.980000 45.449013 5.000000
C 29.520000 46.869295 5.000000
C 30.750000 47.579436 5.000000
C 28.290000 48.999717 5.000000
C 29.520000 49.709858 5.000000
C 27.060000 51.130140 5.000000
C 28.290000 51.840281 5.000000
C 59.040000 0.000000 5.000000
C 60.270000 0.710141 5.000000
C 57.810000 2.130422 5.000000
C 59.040000 2.840563 5.000000
C 56.580000 4.260845 5.000000
C 57.810000 4.970986 5.000000
C 55.350000 6.391267 5.000000
C 56.580000 7.101408 5.000000
C 54.120000 8.521690 5.000000
C 55.350000 9.231831 5.000000
C 52.890000 10.652112 5.000000
C 54.120000 11.362253 5.000000
C 51.660000 12.782535 5.000000
C 52.890000 13.492676 5.000000
C 50.430000 14.912957 5.000000
C 51.660000 15.623098 5.000000
C 49.200000 17.043380 5.000000
C 50.430000 17.753521 5.000000
C 47.970000 19.173802 5.000000
C 49.200000 19.883943 5.000000
C 46.740000 21.304225 5.000000
C 47.970000 22.014366 5.000000
C 45.510000 23.434647 5.000000
C 46.740000 24.144788 5.000000
C 44.280000 25.565070 5.000000
C 45.510000 26.275211 5.000000
C 43.050000 27.695492 5.000000
C 44.280000 28.405633 5.000000
C 41.820000 29.825915 5.000000
C 43.050000 30.536056 5.000000
C 40.590000 31.956337 5.000000
C 41.820000 32.666478 5.000000
C 39.360000 34.086760 5.000000
C 40.590000 34.796901 5.000000
C 38.130000 36.217182 5.000000
C 39.360000 36.927323 5.000000
C 36.900000 38.347605 5.000000
C 38.130000 39.057746 5.000000
C 35.670000 40.478027 5.000000
C 36.900000 41.188168 5.000000
C 34.440000 42.608450 5.000000
C 35.670000 43.318591 5.000000
C 33.210000 44.738872 5.000000
C 34.440000 45.449013 5.000000
C 31.980000 46.869295 5.000000
C 33.210000 47.579436 5.000000
C 30.750000 48.999717 5.000000
C 31.980000 49.709858 5.000000
C 29.520000 51.130140 5.000000
C 30.750000 51.840281 5.000000
X 0.000000 0.000000 5.650000
X 1.230000 0.710141 5.650000
X -1.230000 2.130422 5.650000
X 0.000000 2.840563 5.650000
X -2.460000 4.260845 5.650000
X -1.230000 4.970986 5.650000
X -3.690000 6.391267 5.650000
X -2.460000 7.101408 5.650000
X -4.920000 8.521690 5.650000
X -3.690000 9.231831 5.650000
X -6.150000 10.652112 5.650000
X -4.920000 11.362253 5.650000
X -7.380000 12.782535 5.650000
X -6.150000 13.492676 5.650000
X -8.610000 14.912957 5.650000
X -7.380000 15.623098 5.650000
X -9.840000 17.043380 5.650000
X -8.610000 17.753521 5.650000
X -11.070000 19.173802 5.650000
X -9.840000 19.883943 5.650000
X -12.300000 21.304225 5.650000
X -11.070000 22.014366 5.650000
X -13.530000 23.434647 5.650000
X -12.300000 24.144788 5.650000
X -14.760000 25.565070 5.650000
X -13.530000 26.275211 5.650000
X -15.990000 27.695492 5.650000
X -14.760000 28.405633 5.650000
X -17.220000 29.825915 5.650000
X -15.990000 30.536056 5.650000
X -18.450000 31.956337 5.650000
X -17.220000 32.666478 5.650000
X -19.680000 34.086760 5.650000
X -18.450000 34.796901 5.650000
X -20.910000 36.217182 5.650000
X -19.680000 36.927323 5.650000
X -22.140000 38.347605 5.650000
X -20.910000 39.057746 5.650000
X -23.370000 40.478027 5.650000
X -22.140000 41.188168 5.650000
X -24.600000 42.608450 5.650000
X -23.370000 43.318591 5.650000
X -25.830000 44.738872 5.650000
X -24.600000 45.449013 5.650000
X -27.060000 46.869295 5.650000
X -25.830000 47.579436 5.650000
X -28.290000 48.999717 5.650000
X -27.060000 49.709858 5.650000
X -29.520000 51.130140 5.650000
X -28.290000 51.840281 5.650000
X 2.460000 0.000000 5.650000
X 3.690000 0.710141 5.650000
X 1.230000 2.130422 5.650000
X 2.460000 2.840563 5.650000
X 0.000000 4.260845 5.650000
X 1.230000 4.970986 5.650000
X -1.230000 6.391267 5.650000
X 0.000000 7.101408 5.650000
X -2.460000 8.521690 5.650000
X -1.230000 9.231831 5.650000
X -3.690000 10.652112 5.650000
X -2.460000 11.362253 5.650000
X -4.920000 12.782535 5.650000
X -3.690000 13.492676 5.650000
X -6.150000 14.912957 5.650000
X -4.920000 15.623098 5.650000
X -7.380000 17.043380 5.650000
X -6.150000 17.753521 5.650000
X -8.610000 19.173802 5.650000
X -7.380000 19.883943 5.650000
X -9.840000 21.304225 5.650000
X -8.610000 22.014366 5.650000
X -11.070000 23.434647 5.650000
X -9.840000 24.144788 5.650000
X -12.300000 25.565070 5.650000
X -11.070000 26.275211 5.650000
X -13.530000 27.695492 5.650000
X -12.300000 28.405633 5.650000
X -14.760000 29.825915 5.650000
X -13.530000 30.536056 5.650000
X -15.990000 31.956337 5.650000
X -14.760000 32.666478 5.650000
X -17.220000 34.086760 5.650000
X -15.990000 34.796901 5.650000
X -18.450000 36.217182 5.650000
X -17.220000 36.927323 5.650000
X -19.680000 38.347605 5.650000
X -18.450000 39.057746 5.650000
X -20.910000 40.478027 5.650000
X -19.680000 41.188168 5.650000
X -22.140000 42.608450 5.650000
X -20.910000 43.318591 5.650000
X -23.370000 44.738872 5.650000
X -22.140000 45.449013 5.650000
X -24.600000 46.869295 5.650000
X -23.370000 47.579436 5.650000
X -25.830000 48.999717 5.650000
X -24.600000 49.709858 5.650000
X -27.060000 51.130140 5.650000
X -25.830000 51.840281 5.650000
X 4.920000 0.000000 5.650000
X 6.150000 0.710141 5.650000
X 3.690000 2.130422 5.650000
X 4.920000 2.840563 5.650000
X 2.460000 4.260845 5.650000
X 3.690000 4.970986 5.650000
X 1.230000 6.391267 5.650000
X 2.460000 7.101408 5.650000
X 0.000000 8.521690 5.650000
X 1.230000 9.231831 5.650000
X -1.230000 10.652112 5.650000
X -0.000000 11.362253 5.650000
X -2.460000 12.782535 5.650000
X -1.230000 13.492676 5.650000
X -3.690000 14.912957 5.650000
X -2.460000 15.623098 5.650000
X -4.920000 17.043380 5.650000
X -3.690000 17.753521 5.650000
X -6.150000 19.173802 5.650000
X -4.920000 19.883943 5.650000
X -7.380000 21.304225 5.650000
X -6.150000 22.014366 5.650000
X -8.610000 23.434647 5.650000
X -7.380000 24.144788 5.650000
X -9.840000 25.565070 5.650000
X -8.610000 26.275211 5.650000
X -11.070000 27.695492 5.650000
X -9.840000 28.405633 5.650000
X -12.300000 29.825915 5.650000
X -11.070000 30.536056 5.650000
X -13.530000 31.956337 5.650000
X -12.300000 32.666478 5.650000
X -14.760000 34.086760 5.650000
X -13.530000 34.796901 5.650000
X -15.990000 36.217182 5.650000
X -14.760000 36.927323 5.650000
X -17.220000 38.347605 5.650000
X -15.990000 39.057746 5.650000
X -18.450000 40.478027 5.650000
X -17.220000 41.188168 5.650000
X -19.680000 42.608450 5.650000
X -18.450000 43.318591 5.650000
X -20.910000 44.738872 5.650000
X -19.680000 45.449013 5.650000
X -22.140000 46.869295 5.650000
X -20.910000 47.579436 5.650000
X -23.370000 48.999717 5.650000
X -22.140000 49.709858 5.650000
X -24.600000 51.130140 5.650000
X -23.370000 51.840281 5.650000
X 7.380000 0.000000 5.650000
X 8.610000 0.710141 5.650000
X 6.150000 2.130422 5.650000
X 7.380000 2.840563 5.650000
X 4.920000 4.260845 5.650000
X 6.150000 4.970986 5.650000
X 3.690000 6.391267 5.650000
X 4.920000 7.101408 5.650000
X 2.460000 8.521690 5.650000
X 3.690000 9.231831 5.650000
X 1.230000 10.652112 5.650000
X 2.460000 11.362253 5.650000
X 0.000000 12.782535 5.650000
X 1.230000 13.492676 5.650000
X -1.230000 14.912957 5.650000
X 0.000000 15.623098 5.650000
X -2.460000 17.043380 5.650000
X -1.230000 17.753521 5.650000
X -3.690000 19.173802 5.650000
X -2.460000 19.883943 5.650000
X -4.920000 21.304225 5.650000
X -3.690000 22.014366 5.650000
X -6.150000 23.434647 5.650000
X -4.920000 24.144788 5.650000
X -7.380000 25.565070 5.650000
X -6.150000 26.275211 5.650000
X -8.610000 27.695492 5.650000
X -7.380000 28.405633 5.650000
X -9.840000 29.825915 5.650000
X -8.610000 30.536056 5.650000
X -11.070000 31.956337 5.650000
X -9.840000 32.666478 5.650000
X -12.300000 34.086760 5.650000
X -11.070000 34.796901 5.650000
X -13.530000 36.217182 5.650000
X -12.300000 36.927323 5.650000
X -14.760000 38.347605 5.650000
X -13.530000 39.057746 5.650000
X -15.990000 40.478027 5.650000
X -14.760000 41.188168 5.650000
X -17.220000 42.608450 5.650000
X -15.990000 43.318591 5.650000
X -18.450000 44.738872 5.650000
X -17.220000 45.449013 5.650000
X -19.680000 46.869295 5.650000
X -18.450000 47.579436 5.650000
X -20.910000 48.999717 5.650000
X -19.680000 49.709858 5.650000
X -22.140000 51.130140 5.650000
X -20.910000 51.840281 5.650000
X 9.840000 0.000000 5.650000
X 11.070000 0.710141 5.650000
X 8.610000 2.130422 5.650000
X 9.840000 2.840563 5.650000
X 7.380000 4.260845 5.650000
X 8.610000 4.970986 5.650000
X 6.150000 6.391267 5.650000
X 7.380000 7.101408 5.650000
X 4.920000 8.521690 5.650000
X 6.150000 9.231831 5.650000
X 3.690000 10.652112 5.650000
X 4.920000 11.362253 5.650000
X 2.460000 12.782535 5.650000
X 3.690000 13.492676 5.650000
X 1.230000 14.912957 5.650000
X 2.460000 15.623098 5.650000
X 0.000000 17.043380 5.650000
X 1.230000 17.753521 5.650000
X -1.230000 19.173802 5.650000
X -0.000000 19.883943 5.650000
X -2.460000 21.304225 5.650000
X -1.230000 22.014366 5.650000
X -3.690000 23.434647 5.650000
X -2.460000 24.144788 5.650000
X -4.920000 25.565070 5.650000
X -3.690000 26.275211 5.650000
X -6.150000 27.695492 5.650000
X -4.920000 28.405633 5.650000
X -7.380000 29.825915 5.650000
X -6.150000 30.536056 5.650000
X -8.610000 31.956337 5.650000
X -7.380000 32.666478 5.650000
X -9.840000 34.086760 5.650000
X -8.610000 34.796901 5.650000
X -11.070000 36.217182 5.650000
X -9.840000 36.927323 5.650000
X -12.300000 38.347605 5.650000
X -11.070000 39.057746 5.650000
X -13.530000 40.478027 5.650000
X -12.300000 41.188168 5.650000
X -14.760000 42.608450 5.650000
X -13.530000 43.318591 5.650000
X -15.990000 44.738872 5.650000
X -14.760000 45.449013 5.650000
X -17.220000 46.869295 5.650000
X -15.990000 47.579436 5.650000
X -18.450000 48.999717 5.650000
X -17.220000 49.709858 5.650000
X -19.680000 51.130140 5.650000
X -18.450000 51.840281 5.650000
X 12.300000 0.000000 5.650000
X 13.530000 0.710141 5.650000
X 11.070000 2.130422 5.650000
X 12.300000 2.840563 5.650000
X 9.840000 4.260845 5.650000
X 11.070000 4.970986 5.650000
X 8.610000 6.391267 5.650000
X 9.840000 7.101408 5.650000
X 7.380000 8.521690 5.650000
X 8.610000 9.231831 5.650000
X 6.150000 10.652112 5.650000
X 7.380000 11.362253 5.650000
X 4.920000 12.782535 5.650000
X 6.150000 13.492676 5.650000
X 3.690000 14.912957 5.650000
X 4.920000 15.623098 5.650000
X 2.460000 17.043380 5.650000
X 3.690000 17.753521 5.650000
X 1.230000 19.173802 5.650000
X 2.460000 19.883943 5.650000
X 0.000000 21.304225 5.650000
X 1.230000 22.014366 5.650000
X -1.230000 23.434647 5.650000
X 0.000000 24.144788 5.650000
X -2.460000 25.565070 5.650000
X -1.230000 26.275211 5.650000
X -3.690000 27.695492 5.650000
X -2.460000 28.405633 5.650000
X -4.920000 29.825915 5.650000
X -3.690000 30.536056 5.650000
X -6.150000 31.956337 5.650000
X -4.920000 32.666478 5.650000
X -7.380000 34.086760 5.650000
X -6.150000 34.796901 5.650000
X -8.610000 36.217182 5.650000
X -7.380000 36.927323 5.650000
X -9.840000 38.347605 5.650000
X -8.610000 39.057746 5.650000
X -11.070000 40.478027 5.650000
X -9.840000 41.188168 5.650000
X -12.300000 42.608450 5.650000
X -11.070000 43.318591 5.650000
X -13.530000 44.738872 5.650000
X -12.300000 45.449013 5.650000
X -14.760000 46.869295 5.650000
X -13.530000 47.579436 5.650000
X -15.990000 48.999717 5.650000
X -14.760000 49.709858 5.650000
X -17.220000 51.130140 5.650000
X -15.990000 51.840281 5.650000
X 14.760000 0.000000 5.650000
X 15.990000 0.710141 5.650000
X 13.530000 2.130422 5.650000
X 14.760000 2.840563 5.650000
X 12.300000 4.260845 5.650000
X 13.530000 4.970986 5.650000
X 11.070000 6.391267 5.650000
X 12.300000 7.101408 5.650000
X 9.840000 8.521690 5.650000
X 11.070000 9.231831 5.650000
X 8.610000 10.652112 5.650000
X 9.840000 11.362253 5.650000
X 7.380000 12.782535 5.650000
X 8.610000 13.492676 5.650000
X 6.150000 14.912957 5.650000
X 7.380000 15.623098 5.650000
X 4.920000 17.043380 5.650000
X 6.150000 17.753521 5.650000
X 3.690000 19.173802 5.650000
X 4.920000 19.883943 5.650000
X 2.460000 21.304225 5.650000
X 3.690000 22.014366 5.650000
X 1.230000 23.434647 5.650000
X 2.460000 24.144788 5.650000
X 0.000000 25.565070 5.650000
X 1.230000 26.275211 5.650000
X -1.230000 27.695492 5.650000
X -0.000000 28.405633 5.650000
X -2.460000 29.825915 5.650000
X -1.230000 30.536056 5.650000
X -3.690000 31.956337 5.650000
X -2.460000 32.666478 5.650000
X -4.920000 34.086760 5.650000
X -3.690000 34.796901 5.650000
X -6.150000 36.217182 5.650000
X -4.920000 36.927323 5.650000
X -7.380000 38.347605 5.650000
X -6.150000 39.057746 5.650000
X -8.610000 40.478027 5.650000
X -7.380000 41.188168 5.650000
X -9.840000 42.608450 5.650000
X -8.610000 43.318591 5.650000
X -11.070000 44.738872 5.650000
X -9.840000 45.449013 5.650000
X -12.300000 46.869295 5.650000
X -11.070000 47.579436 5.650000
X -13.530000 48.999717 5.650000
X -12.300000 49.709858 5.650000
X -14.760000 51.130140 5.650000
X -13.530000 51.840281 5.650000
X 17.220000 0.000000 5.650000
X 18.450000 0.710141 5.650000
X 15.990000 2.130422 5.650000
X 17.220000 2.840563 5.650000
X 14.760000 4.260845 5.650000
X 15.990000 4.970986 5.650000
X 13.530000 6.391267 5.650000
X 14.760000 7.101408 5.650000
X 12.300000 8.521690 5.650000
X 13.530000 9.231831 5.650000
X 11.070000 10.652112 5.650000
X 12.300000 11.362253 5.650000
X 9.840000 12.782535 5.650000
X 11.070000 13.492676 5.650000
X 8.610000 14.912957 5.650000
X 9.840000 15.623098 5.650000
X 7.380000 17.043380 5.650000
X 8.610000 17.753521 5.650000
X 6.150000 19.173802 5.650000
X 7.380000 19.883943 5.650000
X 4.920000 21.304225 5.650000
X 6.150000 22.014366 5.650000
X 3.690000 23.434647 5.650000
X 4.920000 24.144788 5.650000
X 2.460000 25.565070 5.650000
X 3.690000 26.275211 5.650000
X 1.230000 27.695492 5.650000
X 2.460000 28.405633 5.650000
X 0.000000 29.825915 5.650000
X 1.230000 30.536056 5.650000
X -1.230000 31.956337 5.650000
X -0.000000 32.666478 5.650000
X -2.460000 34.086760 5.650000
X -1.230000 34.796901 5.650000
X -3.690000 36.217182 5.650000
X -2.460000 36.927323 5.650000
X -4.920000 38.347605 5.650000
X -3.690000 39.057746 5.650000
X -6.150000 40.478027 5.650000
X -4.920000 41.188168 5.650000
X -7.380000 42.608450 5.650000
X -6.150000 43.318591 5.650000
X -8.610000 44.738872 5.650000
X -7.380000 45.449013 5.650000
X -9.840000 46.869295 5.650000
X -8.610000 47.579436 5.650000
X -11.070000 48.999717 5.650000
X -9.840000 49.709858 5.650000
X -12.300000 51.130140 5.650000
X -11.070000 51.840281 5.650000
X 19.680000 0.000000 5.650000
X 20.910000 0.710141 5.650000
X 18.450000 2.130422 5.650000
X 19.680000 2.840563 5.650000
X 17.220000 4.260845 5.650000
X 18.450000 4.970986 5.650000
X 15.990000 6.391267 5.650000
X 17.220000 7.101408 5.650000
X 14.760000 8.521690 5.650000
X 15.990000 9.231831 5.650000
X 13.530000 10.652112 5.650000
X 14.760000 11.362253 5.650000
X 12.300000 12.782535 5.650000
X 13.530000 13.492676 5.650000
X 11.070000 14.912957 5.650000
X 12.300000 15.623098 5.650000
X 9.840000 17.043380 5.650000
X 11.070000 17.753521 5.650000
X 8.610000 19.173802 5.650000
X 9.840000 19.883943 5.650000
X 7.380000 21.304225 5.650000
X 8.610000 22.014366 5.650000
X 6.150000 23.434647 5.650000
X 7.380000 24.144788 5.650000
X 4.920000 25.565070 5.650000
X 6.150000 26.275211 5.650000
X 3.690000 27.695492 5.650000
X 4.920000 28.405633 5.650000
X 2.460000 29.825915 5.650000
X 3.690000 30.536056 5.650000
X 1.230000 31.956337 5.650000
X 2.460000 32.666478 5.650000
X 0.000000 34.086760 5.650000
X 1.230000 34.796901 5.650000
X -1.230000 36.217182 5.650000
X -0.000000 36.927323 5.650000
X -2.460000 38.347605 5.650000
X -1.230000 39.057746 5.650000
X -3.690000 40.478027 5.650000
X -2.460000 41.188168 5.650000
X -4.920000 42.608450 5.650000
X -3.690000 43.318591 5.650000
X -6.150000 44.738872 5.650000
X -4.920000 45.449013 5.650000
X -7.380000 46.869295 5.650000
X -6.150000 47.579436 5.650000
X -8.610000 48.999717 5.650000
X -7.380000 49.709858 5.650000
X -9.840000 51.130140 5.650000
X -8.610000 51.840281 5.650000
X 22.140000 0.000000 5.650000
X 23.370000 0.710141 5.650000
X 20.910000 2.130422 5.650000
X 22.140000 2.840563 5.650000
X 19.680000 4.260845 5.650000
X 20.910000 4.970986 5.650000
X 18.450000 6.391267 5.650000
X 19.680000 7.101408 5.650000
X 17.220000 8.521690 5.650000
X 18.450000 9.231831 5.650000
X 15.990000 10.652112 5.650000
X 17.220000 11.362253 5.650000
X 14.760000 12.782535 5.650000
X 15.990000 13.492676 5.650000
X 13.530000 14.912957 5.650000
X 14.760000 15.623098 5.650000
X 12.300000 17.043380 5.650000
X 13.530000 17.753521 5.650000
X 11.070000 19.173802 5.650000
X 12.300000 19.883943 5.650000
X 9.840000 21.304225 5.650000
X 11.070000 22.014366 5.650000
X 8.610000 23.434647 5.650000
X 9.840000 24.144788 5.650000
X 7.380000 25.565070 5.650000
X 8.610000 26.275211 5.650000
X 6.150000 27.695492 5.650000
X 7.380000 28.405633 5.650000
X 4.920000 29.825915 5.650000
X 6.150000 30.536056 5.650000
X 3.690000 31.956337 5.650000
X 4.920000 32.666478 5.650000
X 2.460000 34.086760 5.650000
X 3.690000 34.796901 5.650000
X 1.230000 36.217182 5.650000
X 2.460000 36.927323 5.650000
X 0.000000 38.347605 5.650000
X 1.230000 39.057746 5.650000
X -1.230000 40.478027 5.650000
X -0.000000 41.188168 5.650000
X -2.460000 42.608450 5.650000
X -1.230000 43.318591 5.650000
X -3.690000 44.738872 5.650000
X -2.460000 45.449013 5.650000
X -4.920000 46.869295 5.650000
X -3.690000 47.579436 5.650000
X -6.150000 48.999717 5.650000
X -4.920000 49.709858 5.650000
X -7.380000 51.130140 5.650000
X -6.150000 51.840281 5.650000
X 24.600000 0.000000 5.650000
X 25.830000 0.710141 5.650000
X 23.370000 2.130422 5.650000
X 24.600000 2.840563 5.650000
X 22.140000 4.260845 5.650000
X 23.370000 4.970986 5.650000
X 20.910000 6.391267 5.650000
X 22.140000 7.101408 5.650000
X 19.680000 8.521690 5.650000
X 20.910000 9.231831 5.650000
X 18.450000 10.652112 5.650000
X 19.680000 11.362253 5.650000
X 17.220000 12.782535 5.650000
X 18.450000 13.492676 5.650000
X 15.990000 14.912957 5.650000
X 17.220000 15.623098 5.650000
X 14.760000 17.043380 5.650000
X 15.990000 17.753521 5.650000
X 13.530000 19.173802 5.650000
X 14.760000 19.883943 5.650000
X 12.300000 21.304225 5.650000
X 13.530000 22.014366 5.650000
X 11.070000 23.434647 5.650000
X 12.300000 24.144788 5.650000
X 9.840000 25.565070 5.650000
X 11.070000 26.275211 5.650000
X 8.610000 27.695492 5.650000
X 9.840000 28.405633 5.650000
X 7.380000 29.825915 5.650000
X 8.610000 30.536056 5.650000
X 6.150000 31.956337 5.650000
X 7.380000 32.666478 5.650000
X 4.920000 34.086760 5.650000
X 6.150000 34.796901 5.650000
X 3.690000 36.217182 5.650000
X 4.920000 36.927323 5.650000
X 2.460000 38.347605 5.650000
X 3.690000 39.057746 5.650000
X 1.230000 40.478027 5.650000
X 2.460000 41.188168 5.650000
X 0.000000 42.608450 5.650000
X 1.230000 43.318591 5.650000
X -1.230000 44.738872 5.650000
X 0.000000 45.449013 5.650000
X -2.460000 46.869295 5.650000
X -1.230000 47.579436 5.650000
X -3.690000 48.999717 5.650000
X -2.460000 49.709858 5.650000
X -4.920000 51.130140 5.650000
X -3.690000 51.840281 5.650000
X 27.060000 0.000000 5.650000
X 28.290000 0.710141 5.650000
X 25.830000 2.130422 5.650000
X 27.060000 2.840563 5.650000
X 24.600000 4.260845 5.650000
X 25.830000 4.970986 5.650000
X 23.370000 6.391267 5.650000
X 24.600000 7.101408 5.650000
X 22.140000 8.521690 5.650000
X 23.370000 9.231831 5.650000
X 20.910000 10.652112 5.650000
X 22.140000 11.362253 5.650000
X 19.680000 12.782535 5.650000
X 20.910000 13.492676 5.650000
X 18.450000 14.912957 5.650000
X 19.680000 15.623098 5.650000
X 17.220000 17.043380 5.650000
X 18.450000 17.753521 5.650000
X 15.990000 19.173802 5.650000
X 17.220000 19.883943 5.650000
X 14.760000 21.304225 5.650000
X 15.990000 22.014366 5.650000
X 13.530000 23.434647 5.650000
X 14.760000 24.144788 5.650000
X 12.300000 25.565070 5.650000
X 13.530000 26.275211 5.650000
X 11.070000 27.695492 5.650000
X 12.300000 28.405633 5.650000
X 9.840000 29.825915 5.650000
X 11.070000 30.536056 5.650000
X 8.610000 31.956337 5.650000
X 9.840000 32.666478 5.650000
X 7.380000 34.086760 5.650000
X 8.610000 34.796901 5.650000
X 6.150000 36.217182 5.650000
X 7.380000 36.927323 5.650000
X 4.920000 38.347605 5.650000
X 6.150000 39.057746 5.650000
X 3.690000 40.478027 5.650000
X 4.920000 41.188168 5.650000
X 2.460000 42.608450 5.650000
X 3.690000 43.318591 5.650000
X 1.230000 44.738872 5.650000
X 2.460000 45.449013 5.650000
X 0.000000 46.869295 5.650000
X 1.230000 47.579436 5.650000
X -1.230000 48.999717 5.650000
X -0.000000 49.709858 5.650000
X -2.460000 51.130140 5.650000
X -1.230000 51.840281 5.650000
X 29.520000 0.000000 5.650000
X 30.750000 0.710141 5.650000
X 28.290000 2.130422 5.650000
X 29.520000 2.840563 5.650000
X 27.060000 4.260845 5.650000
X 28.290000 4.970986 5.650000
X 25.830000 6.391267 5.650000
X 27.060000 7.101408 5.650000
X 24.600000 8.521690 5.650000
X 25.830000 9.231831 5.650000
X 23.370000 10.652112 5.650000
X 24.600000 11.362253 5.650000
X 22.140000 12.782535 5.650000
X 23.370000 13.492676 5.650000
X 20.910000 14.912957 5.650000
X 22.140000 15.623098 5.650000
X 19.680000 17.043380 5.650000
X 20.910000 17.753521 5.650000
X 18.450000 19.173802 5.650000
X 19.680000 19.883943 5.650000
X 17.220000 21.304225 5.650000
X 18.450000 22.014366 5.650000
X 15.990000 23.434647 5.650000
X 17.220000 24.144788 5.650000
X 14.760000 25.565070 5.650000
X 15.990000 26.275211 5.650000
X 13.530000 27.695492 5.650000
X 14.760000 28.405633 5.650000
X 12.300000 29.825915 5.650000
X 13.530000 30.536056 5.650000
X 11.070000 31.956337 5.650000
X 12.300000 32.666478 5.650000
X 9.840000 34.086760 5.650000
X 11.070000 34.796901 5.650000
X 8.610000 36.217182 5.650000
X 9.840000 36.927323 5.650000
X 7.380000 38.347605 5.650000
X 8.610000 39.057746 5.650000
X 6.150000 40.478027 5.650000
X 7.380000 41.188168 5.650000
X 4.920000 42.608450 5.650000
X 6.150000 43.318591 5.650000
X 3.690000 44.738872 5.650000
X 4.920000 45.449013 5.650000
X 2.460000 46.869295 5.650000
X 3.690000 47.579436 5.650000
X 1.230000 48.999717 5.650000
X 2.460000 49.709858 5.650000
X 0.000000 51.130140 5.650000
X 1.230000 51.840281 5.650000
X 31.980000 0.000000 5.650000
X 33.210000 0.710141 5.650000
X 30.750000 2.130422 5.650000
X 31.980000 2.840563 5.650000
X 29.520000 4.260845 5.650000
X 30.750000 4.970986 5.650000
X 28.290000 6.391267 5.650000
X 29.520000 7.101408 5.650000
X 27.060000 8.521690 5.650000
X 28.290000 9.231831 5.650000
X 25.830000 10.652112 5.650000
X 27.060000 11.362253 5.650000
X 24.600000 12.782535 5.650000
X 25.830000 13.492676 5.650000
X 23.370000 14.912957 5.650000
X 24.600000 15.623098 5.650000
X 22.140000 17.043380 5.650000
X 23.370000 17.753521 5.650000
X 20.910000 19.173802 5.650000
X 22.140000 19.883943 5.650000
X 19.680000 21.304225 5.650000
X 20.910000 22.014366 5.650000
X 18.450000 23.434647 5.650000
X 19.680000 24.144788 5.650000
X 17.220000 25.565070 5.650000
X 18.450000 26.275211 5.650000
X 15.990000 27.695492 5.650000
X 17.220000 28.405633 5.650000
X 14.760000 29.825915 5.650000
X 15.990000 30.536056 5.650000
X 13.530000 31.956337 5.650000
X 14.760000 32.666478 5.650000
X 12.300000 34.086760 5.650000
X 13.530000 34.796901 5.650000
X 11.070000 36.217182 5.650000
X 12.300000 36.927323 5.650000
X 9.840000 38.347605 5.650000
X 11.070000 39.057746 5.650000
X 8.610000 40.478027 5.650000
X 9.840000 41.188168 5.650000
X 7.380000 42.608450 5.650000
X 8.610000 43.318591 5.650000
X 6.150000 44.738872 5.650000
X 7.380000 45.449013 5.650000
X 4.920000 46.869295 5.650000
X 6.150000 47.579436 5.650000
X 3.690000 48.999717 5.650000
X 4.920000 49.709858 5.650000
X 2.460000 51.130140 5.650000
X 3.690000 51.840281 5.650000
X 34.440000 0.000000 5.650000
X 35.670000 0.710141 5.650000
X 33.210000 2.130422 5.650000
X 34.440000 2.840563 5.650000
X 31.980000 4.260845 5.650000
X 33.210000 4.970986 5.650000
X 30.750000 6.391267 5.650000
X 31.980000 7.101408 5.650000
X 29.520000 8.521690 5.650000
X 30.750000 9.231831 5.650000
X 28.290000 10.652112 5.650000
X 29.520000 11.362253 5.650000
X 27.060000 12.782535 5.650000
X 28.290000 13.492676 5.650000
X 25.830000 14.912957 5.650000
X 27.060000 15.623098 5.650000
X 24.600000 17.043380 5.650000
X 25.830000 17.753521 5.650000
X 23.370000 19.173802 5.650000
X 24.600000 19.883943 5.650000
X 22.140000 21.304225 5.650000
X 23.370000 22.014366 5.650000
X 20.910000 23.434647 5.650000
X 22.140000 24.144788 5.650000
X 19.680000 25.565070 5.650000
X 20.910000 26.275211 5.650000
X 18.450000 27.695492 5.650000
X 19.680000 28.405633 5.650000
X 17.220000 29.825915 5.650000
X 18.450000 30.536056 5.650000
X 15.990000 31.956337 5.650000
X 17.220000 32.666478 5.650000
X 14.760000 34.086760 5.650000
X 15.990000 34.796901 5.650000
X 13.530000 36.217182 5.650000
X 14.760000 36.927323 5.650000
X 12.300000 38.347605 5.650000
X 13.530000 39.057746 5.650000
X 11.070000 40.478027 5.650000
X 12.300000 41.188168 5.650000
X 9.840000 42.608450 5.650000
X 11.070000 43.318591 5.650000
X 8.610000 44.738872 5.650000
X 9.840000 45.449013 5.650000
X 7.380000 46.869295 5.650000
X 8.610000 47.579436 5.650000
X 6.150000 48.999717 5.650000
X 7.380000 49.709858 5.650000
X 4.920000 51.130140 5.650000
X 6.150000 51.840281 5.650000
X 36.900000 0.000000 5.650000
X 38.130000 0.710141 5.650000
X 35.670000 2.130422 5.650000
X 36.900000 2.840563 5.650000
X 34.440000 4.260845 5.650000
X 35.670000 4.970986 5.650000
X 33.210000 6.391267 5.650000
X 34.440000 7.101408 5.650000
X 31.980000 8.521690 5.650000
X 33.210000 9.231831 5.650000
X 30.750000 10.652112 5.650000
X 31.980000 11.362253 5.650000
X 29.520000 12.782535 5.650000
X 30.750000 13.492676 5.650000
X 28.290000 14.912957 5.650000
X 29.520000 15.623098 5.650000
X 27.060000 17.043380 5.650000
X 28.290000 17.753521 5.650000
X 25.830000 19.173802 5.650000
X 27.060000 19.883943 5.650000
X 24.600000 21.304225 5.650000
X 25.830000 22.014366 5.650000
X 23.370000 23.434647 5.650000
X 24.600000 24.144788 5.650000
X 22.140000 25.565070 5.650000
X 23.370000 26.275211 5.650000
X 20.910000 27.695492 5.650000
X 22.140000 28.405633 5.650000
X 19.680000 29.825915 5.650000
X 20.910000 30.536056 5.650000
X 18.450000 31.956337 5.650000
X 19.680000 32.666478 5.650000
X 17.220000 34.086760 5.650000
X 18.450000 34.796901 5.650000
X 15.990000 36.217182 5.650000
X 17.220000 36.927323 5.650000
X 14.760000 38.347605 5.650000
X 15.990000 39.057746 5.650000
X 13.530000 40.478027 5.650000
X 14.760000 41.188168 5.650000
X 12.300000 42.608450 5.650000
X 13.530000 43.318591 5.650000
X 11.070000 44.738872 5.650000
X 12.300000 45.449013 5.650000
X 9.840000 46.869295 5.650000
X 11.070000 47.579436 5.650000
X 8.610000 48.999717 5.650000
X 9.840000 49.709858 5.650000
X 7.380000 51.130140 5.650000
X 8.610000 51.840281 5.650000
X 39.360000 0.000000 5.650000
X 40.590000 0.710141 5.650000
X 38.130000 2.130422 5.650000
X 39.360000 2.840563 5.650000
X 36.900000 4.260845 5.650000
X 38.130000 4.970986 5.650000
X 35.670000 6.391267 5.650000
X 36.900000 7.101408 5.650000
X 34.440000 8.521690 5.650000
X 35.670000 9.231831 5.650000
X 33.210000 10.652112 5.650000
X 34.440000 11.362253 5.650000
X 31.980000 12.782535 5.650000
X 33.210000 13.492676 5.650000
X 30.750000 14.912957 5.650000
X 31.980000 15.623098 5.650000
X 29.520000 17.043380 5.650000
X 30.750000 17.753521 5.650000
X 28.290000 19.173802 5.650000
X 29.520000 19.883943 5.650000
X 27.060000 21.304225 5.650000
X 28.290000 22.014366 5.650000
X 25.830000 23.434647 5.650000
X 27.060000 24.144788 5.650000
X 24.600000 25.565070 5.650000
X 25.830000 26.275211 5.650000
X 23.370000 27.695492 5.650000
X 24.600000 28.405633 5.650000
X 22.140000 29.825915 5.650000
X 23.370000 30.536056 5.650000
X 20.910000 31.956337 5.650000
X 22.140000 32.666478 5.650000
X 19.680000 34.086760 5.650000
X 20.910000 34.796901 5.650000
X 18.450000 36.217182 5.650000
X 19.680000 36.927323 5.650000
X 17.220000 38.347605 5.650000
X 18.450000 39.057746 5.650000
X 15.990000 40.478027 5.650000
X 17.220000 41.188168 5.650000
X 14.760000 42.608450 5.650000
X 15.990000 43.318591 5.650000
X 13.530000 44.738872 5.650000
X 14.760000 45.449013 5.650000
X 12.300000 46.869295 5.650000
X 13.530000 47.579436 5.650000
X 11.070000 48.999717 5.650000
X 12.300000 49.709858 5.650000
X 9.840000 51.130140 5.650000
X 11.070000 51.840281 5.650000
X 41.820000 0.000000 5.650000
X 43.050000 0.710141 5.650000
X 40.590000 2.130422 5.650000
X 41.820000 2.840563 5.650000
X 39.360000 4.260845 5.650000
X 40.590000 4.970986 5.650000
X 38.130000 6.391267 5.650000
X 39.360000 7.101408 5.650000
X 36.900000 8.521690 5.650000
X 38.130000 9.231831 5.650000
X 35.670000 10.652112 5.650000
X 36.900000 11.362253 5.650000
X 34.440000 12.782535 5.650000
X 35.670000 13.492676 5.650000
X 33.210000 14.912957 5.650000
X 34.440000 15.623098 5.650000
X 31.980000 17.043380 5.650000
X 33.210000 17.753521 5.650000
X 30.750000 19.173802 5.650000
X 31.980000 19.883943 5.650000
X 29.520000 21.304225 5.650000
X 30.750000 22.014366 5.650000
X 28.290000 23.434647 5.650000
X 29.520000 24.144788 5.650000
X 27.060000 25.565070 5.650000
X 28.290000 26.275211 5.650000
X 25.830000 27.695492 5.650000
X 27.060000 28.405633 5.650000
X 24.600000 29.825915 5.650000
X 25.830000 30.536056 5.650000
X 23.370000 31.956337 5.650000
X 24.600000 32.666478 5.650000
X 22.140000 34.086760 5.650000
X 23.370000 34.796901 5.650000
X 20.910000 36.217182 5.650000
X 22.140000 36.927323 5.650000
X 19.680000 38.347605 5.650000
X 20.910000 39.057746 5.650000
X 18.450000 40.478027 5.650000
X 19.680000 41.188168 5.650000
X 17.220000 42.608450 5.650000
X 18.450000 43.318591 5.650000
X 15.990000 44.738872 5.650000
X 17.220000 45.449013 5.650000
X 14.760000 46.869295 5.650000
X 15.990000 47.579436 5.650000
X 13.530000 48.999717 5.650000
X 14.760000 49.709858 5.650000
X 12.300000 51.130140 5.650000
X 13.530000 51.840281 5.650000
X 44.280000 0.000000 5.650000
X 45.510000 0.710141 5.650000
X 43.050000 2.130422 5.650000
X 44.280000 2.840563 5.650000
X 41.820000 4.260845 5.650000
X 43.050000 4.970986 5.650000
X 40.590000 6.391267 5.650000
X 41.820000 7.101408 5.650000
X 39.360000 8.521690 5.650000
X 40.590000 9.231831 5.650000
X 38.130000 10.652112 5.650000
X 39.360000 11.362253 5.650000
X 36.900000 12.782535 5.650000
X 38.130000 13.492676 5.650000
X 35.670000 14.912957 5.650000
X 36.900000 15.623098 5.650000
X 34.440000 17.043380 5.650000
X 35.670000 17.753521 5.650000
X 33.210000 19.173802 5.650000
X 34.440000 19.883943 5.650000
X 31.980000 21.304225 5.650000
X 33.210000 22.014366 5.650000
X 30.750000 23.434647 5.650000
X 31.980000 24.144788 5.650000
X 29.520000 25.565070 5.650000
X 30.750000 26.275211 5.650000
X 28.290000 27.695492 5.650000
X 29.520000 28.405633 5.650000
X 27.060000 29.825915 5.650000
X 28.290000 30.536056 5.650000
X 25.830000 31.956337 5.650000
X 27.060000 32.666478 5.650000
X 24.600000 34.086760 5.650000
X 25.830000 34.796901 5.650000
X 23.370000 36.217182 5.650000
X 24.600000 36.927323 5.650000
X 22.140000 38.347605 5.650000
X 23.370000 39.057746 5.650000
X 20.910000 40.478027 5.650000
X 22.140000 41.188168 5.650000
X 19.680000 42.608450 5.650000
X 20.910000 43.318591 5.650000
X 18.450000 44.738872 5.650000
X 19.680000 45.449013 5.650000
X 17.220000 46.869295 5.650000
X 18.450000 47.579436 5.650000
X 15.990000 48.999717 5.650000
X 17.220000 49.709858 5.650000
X 14.760000 51.130140 5.650000
X 15.990000 51.840281 5.650000
X 46.740000 0.000000 5.650000
X 47.970000 0.710141 5.650000
X 45.510000 2.130422 5.650000
X 46.740000 2.840563 5.650000
X 44.280000 4.260845 5.650000
X 45.510000 4.970986 5.650000
X 43.050000 6.391267 5.650000
X 44.280000 7.101408 5.650000
X 41.820000 8.521690 5.650000
X 43.050000 9.231831 5.650000
X 40.590000 10.652112 5.650000
X 41.820000 11.362253 5.650000
X 39.360000 12.782535 5.650000
X 40.590000 13.492676 5.650000
X 38.130000 14.912957 5.650000
X 39.360000 15.623098 5.650000
X 36.900000 17.043380 5.650000
X 38.130000 17.753521 5.650000
X 35.670000 19.173802 5.650000
X 36.900000 19.883943 5.650000
X 34.440000 21.304225 5.650000
X 35.670000 22.014366 5.650000
X 33.210000 23.434647 5.650000
X 34.440000 24.144788 5.650000
X 31.980000 25.565070 5.650000
X 33.210000 26.275211 5.650000
X 30.750000 27.695492 5.650000
X 31.980000 28.405633 5.650000
X 29.520000 29.825915 5.650000
X 30.750000 30.536056 5.650000
X 28.290000 31.956337 5.650000
X 29.520000 32.666478 5.650000
X 27.060000 34.086760 5.650000
X 28.290000 34.796901 5.650000
X 25.830000 36.217182 5.650000
X 27.060000 36.927323 5.650000
X 24.600000 38.347605 5.650000
X 25.830000 39.057746 5.650000
X 23.370000 40.478027 5.650000
X 24.600000 41.188168 5.650000
X 22.140000 42.608450 5.650000
X 23.370000 43.318591 5.650000
X 20.910000 44.738872 5.650000
X 22.140000 45.449013 5.650000
X 19.680000 46.869295 5.650000
X 20.910000 47.579436 5.650000
X 18.450000 48.999717 5.650000
X 19.680000 49.709858 5.650000
X 17.220000 51.130140 5.650000
X 18.450000 51.840281 5.650000
X 49.200000 0.000000 5.650000
X 50.430000 0.710141 5.650000
X 47.970000 2.130422 5.650000
X 49.200000 2.840563 5.650000
X 46.740000 4.260845 5.650000
X 47.970000 4.970986 5.650000
X 45.510000 6.391267 5.650000
X 46.740000 7.101408 5.650000
X 44.280000 8.521690 5.650000
X 45.510000 9.231831 5.650000
X 43.050000 10.652112 5.650000
X 44.280000 11.362253 5.650000
X 41.820000 12.782535 5.650000
X 43.050000 13.492676 5.650000
X 40.590000 14.912957 5.650000
X 41.820000 15.623098 5.650000
X 39.360000 17.043380 5.650000
X 40.590000 17.753521 5.650000
X 38.130000 19.173802 5.650000
X 39.360000 19.883943 5.650000
X 36.900000 21.304225 5.650000
X 38.130000 22.014366 5.650000
X 35.670000 23.434647 5.650000
X 36.900000 24.144788 5.650000
X 34.440000 25.565070 5.650000
X 35.670000 26.275211 5.650000
X 33.210000 27.695492 5.650000
X 34.440000 28.405633 5.650000
X 31.980000 29.825915 5.650000
X 33.210000 30.536056 5.650000
X 30.750000 31.956337 5.650000
X 31.980000 32.666478 5.650000
X 29.520000 34.086760 5.650000
X 30.750000 34.796901 5.650000
X 28.290000 36.217182 5.650000
X 29.520000 36.927323 5.650000
X 27.060000 38.347605 5.650000
X 28.290000 39.057746 5.650000
X 25.830000 40.478027 5.650000
X 27.060000 41.188168 5.650000
X 24.600000 42.608450 5.650000
X 25.830000 43.318591 5.650000
X 23.370000 44.738872 5.650000
X 24.600000 45.449013 5.650000
X 22.140000 46.869295 5.650000
X 23.370000 47.579436 5.650000
X 20.910000 48.999717 5.650000
X 22.140000 49.709858 5.650000
X 19.680000 51.130140 5.650000
X 20.910000 51.840281 5.650000
X 51.660000 0.000000 5.650000
X 52.890000 0.710141 5.650000
X 50.430000 2.130422 5.650000
X 51.660000 2.840563 5.650000
X 49.200000 4.260845 5.650000
X 50.430000 4.970986 5.650000
X 47.970000 6.391267 5.650000
X 49.200000 7.101408 5.650000
X 46.740000 8.521690 5.650000
X 47.970000 9.231831 5.650000
X 45.510000 10.652112 5.650000
X 46.740000 11.362253 5.650000
X 44.280000 12.782535 5.650000
X 45.510000 13.492676 5.650000
X 43.050000 14.912957 5.650000
X 44.280000 15.623098 5.650000
X 41.820000 17.043380 5.650000
X 43.050000 17.753521 5.650000
X 40.590000 19.173802 5.650000
X 41.820000 19.883943 5.650000
X 39.360000 21.304225 5.650000
X 40.590000 22.014366 5.650000
X 38.130000 23.434647 5.650000
X 39.360000 24.144788 5.650000
X 36.900000 25.565070 5.650000
X 38.130000 26.275211 5.650000
X 35.670000 27.695492 5.650000
X 36.900000 28.405633 5.650000
X 34.440000 29.825915 5.650000
X 35.670000 30.536056 5.650000
X 33.210000 31.956337 5.650000
X 34.440000 32.666478 5.650000
X 31.980000 34.086760 5.650000
X 33.210000 34.796901 5.650000
X 30.750000 36.217182 5.650000
X 31.980000 36.927323 5.650000
X 29.520000 38.347605 5.650000
X 30.750000 39.057746 5.650000
X 28.290000 40.478027 5.650000
X 29.520000 41.188168 5.650000
X 27.060000 42.608450 5.650000
X 28.290000 43.318591 5.650000
X 25.830000 44.738872 5.650000
X 27.060000 45.449013 5.650000
X 24.600000 46.869295 5.650000
X 25.830000 47.579436 5.650000
X 23.370000 48.999717 5.650000
X 24.600000 49.709858 5.650000
X 22.140000 51.130140 5.650000
X 23.370000 51.840281 5.650000
X 54.120000 0.000000 5.650000
X 55.350000 0.710141 5.650000
X 52.890000 2.130422 5.650000
X 54.120000 2.840563 5.650000
X 51.660000 4.260845 5.650000
X 52.890000 4.970986 5.650000
X 50.430000 6.391267 5.650000
X 51.660000 7.101408 5.650000
X 49.200000 8.521690 5.650000
X 50.430000 9.231831 5.650000
X 47.970000 10.652112 5.650000
X 49.200000 11.362253 5.650000
X 46.740000 12.782535 5.650000
X 47.970000 13.492676 5.650000
X 45.510000 14.912957 5.650000
X 46.740000 15.623098 5.650000
X 44.280000 17.043380 5.650000
X 45.510000 17.753521 5.650000
X 43.050000 19.173802 5.650000
X 44.280000 19.883943 5.650000
X 41.820000 21.304225 5.650000
X 43.050000 22.014366 5.650000
X 40.590000 23.434647 5.650000
X 41.820000 24.144788 5.650000
X 39.360000 25.565070 5.650000
X 40.590000 26.275211 5.650000
X 38.130000 27.695492 5.650000
X 39.360000 28.405633 5.650000
X 36.900000 29.825915 5.650000
X 38.130000 30.536056 5.650000
X 35.670000 31.956337 5.650000
X 36.900000 32.666478 5.650000
X 34.440000 34.086760 5.650000
X 35.670000 34.796901 5.650000
X 33.210000 36.217182 5.650000
X 34.440000 36.927323 5.650000
X 31.980000 38.347605 5.650000
X 33.210000 39.057746 5.650000
X 30.750000 40.478027 5.650000
X 31.980000 41.188168 5.650000
X 29.520000 42.608450 5.650000
X 30.750000 43.318591 5.650000
X 28.290000 44.738872 5.650000
X 29.520000 45.449013 5.650000
X 27.060000 46.869295 5.650000
X 28.290000 47.579436 5.650000
X 25.830000 48.999717 5.650000
X 27.060000 49.709858 5.650000
X 24.600000 51.130140 5.650000
X 25.830000 51.840281 5.650000
X 56.580000 0.000000 5.650000
X 57.810000 0.710141 5.650000
X 55.350000 2.130422 5.650000
X 56.580000 2.840563 5.650000
X 54.120000 4.260845 5.650000
X 55.350000 4.970986 5.650000
X 52.890000 6.391267 5.650000
X 54.120000 7.101408 5.650000
X 51.660000 8.521690 5.650000
X 52.890000 9.231831 5.650000
X 50.430000 10.652112 5.650000
X 51.660000 11.362253 5.650000
X 49.200000 12.782535 5.650000
X 50.430000 13.492676 5.650000
X 47.970000 14.912957 5.650000
X 49.200000 15.623098 5.650000
X 46.740000 17.043380 5.650000
X 47.970000 17.753521 5.650000
X 45.510000 19.173802 5.650000
X 46.740000 19.883943 5.650000
X 44.280000 21.304225 5.650000
X 45.510000 22.014366 5.650000
X 43.050000 23.434647 5.650000
X 44.280000 24.144788 5.650000
X 41.820000 25.565070 5.650000
X 43.050000 26.275211 5.650000
X 40.590000 27.695492 5.650000
X 41.820000 28.405633 5.650000
X 39.360000 29.825915 5.650000
X 40.590000 30.536056 5.650000
X 38.130000 31.956337 5.650000
X 39.360000 32.666478 5.650000
X 36.900000 34.086760 5.650000
X 38.130000 34.796901 5.650000
X 35.670000 36.217182 5.650000
X 36.900000 36.927323 5.650000
X 34.440000 38.347605 5.650000
X 35.670000 39.057746 5.650000
X 33.210000 40.478027 5.650000
X 34.440000 41.188168 5.650000
X 31.980000 42.608450 5.650000
X 33.210000 43.318591 5.650000
X 30.750000 44.738872 5.650000
X 31.980000 45.449013 5.650000
X 29.520000 46.869295 5.650000
X 30.750000 47.579436 5.650000
X 28.290000 48.999717 5.650000
X 29.520000 49.709858 5.650000
X 27.060000 51.130140 5.650000
X 28.290000 51.840281 5.650000
X 59.040000 0.000000 5.650000
X 60.270000 0.710141 5.650000
X 57.810000 2.130422 5.650000
X 59.040000 2.840563 5.650000
X 56.580000 4.260845 5.650000
X 57.810000 4.970986 5.650000
X 55.350000 6.391267 5.650000
X 56.580000 7.101408 5.650000
X 54.120000 8.521690 5.650000
X 55.350000 9.231831 5.650000
X 52.890000 10.652112 5.650000
X 54.120000 11.362253 5.650000
X 51.660000 12.782535 5.650000
X 52.890000 13.492676 5.650000
X 50.430000 14.912957 5.650000
X 51.660000 15.623098 5.650000
X 49.200000 17.043380 5.650000
X 50.430000 17.753521 5.650000
X 47.970000 19.173802 5.650000
X 49.200000 19.883943 5.650000
X 46.740000 21.304225 5.650000
X 47.970000 22.014366 5.650000
X 45.510000 23.434647 5.650000
X 46.740000 24.144788 5.650000
X 44.280000 25.565070 5.650000
X 45.510000 26.275211 5.650000
X 43.050000 27.695492 5.650000
X 44.280000 28.405633 5.650000
X 41.820000 29.825915 5.650000
X 43.050000 30.536056 5.650000
X 40.590000 31.956337 5.650000
X 41.820000 32.666478 5.650000
X 39.360000 34.086760 5.650000
X 40.590000 34.796901 5.650000
X 38.130000 36.217182 5.650000
X 39.360000 36.927323 5.650000
X 36.900000 38.347605 5.650000
X 38.130000 39.057746 5.650000
X 35.670000 40.478027 5.650000
X 36.900000 41.188168 5.650000
X 34.440000 42.608450 5.650000
X 35.670000 43.318591 5.650000
X 33.210000 44.738872 5.650000
X 34.440000 45.449013 5.650000
X 31.980000 46.869295 5.650000
X 33.210000 47.579436 5.650000
X 30.750000 48.999717 5.650000
X 31.980000 49.709858 5.650000
X 29.520000 51.130140 5.650000
X 30.750000 51.840281 5.650000
X 0.000000 0.000000 4.350000
X 1.230000 0.710141 4.350000
X -1.230000 2.130422 4.350000
X 0.000000 2.840563 4.350000
X -2.460000 4.260845 4.350000
X -1.230000 4.970986 4.350000
X -3.690000 6.391267 4.350000
X -2.460000 7.101408 4.350000
X -4.920000 8.521690 4.350000
X -3.690000 9.231831 4.350000
X -6.150000 10.652112 4.350000
X -4.920000 11.362253 4.350000
X -7.380000 12.782535 4.350000
X -6.150000 13.492676 4.350000
X -8.610000 14.912957 4.350000
X -7.380000 15.623098 4.350000
X -9.840000 17.043380 4.350000
X -8.610000 17.753521 4.350000
X -11.070000 19.173802 4.350000
X -9.840000 19.883943 4.350000
X -12.300000 21.304225 4.350000
X -11.070000 22.014366 4.350000
X -13.530000 23.434647 4.350000
X -12.300000 24.144788 4.350000
X -14.760000 25.565070 4.350000
X -13.530000 26.275211 4.350000
X -15.990000 27.695492 4.350000
X -14.760000 28.405633 4.350000
X -17.220000 29.825915 4.350000
X -15.990000 30.536056 4.350000
X -18.450000 31.956337 4.350000
X -17.220000 32.666478 4.350000
X -19.680000 34.086760 4.350000
X -18.450000 34.796901 4.350000
X -20.910000 36.217182 4.350000
X -19.680000 36.927323 4.350000
X -22.140000 38.347605 4.350000
X -20.910000 39.057746 4.350000
X -23.370000 40.478027 4.350000
X -22.140000 41.188168 4.350000
X -24.600000 42.608450 4.350000
X -23.370000 43.318591 4.350000
X -25.830000 44.738872 4.350000
X -24.600000 45.449013 4.350000
X -27.060000 46.869295 4.350000
X -25.830000 47.579436 4.350000
X -28.290000 48.999717 4.350000
X -27.060000 49.709858 4.350000
X -29.520000 51.130140 4.350000
X -28.290000 51.840281 4.350000
X 2.460000 0.000000 4.350000
X 3.690000 0.710141 4.350000
X 1.230000 2.130422 4.350000
X 2.460000 2.840563 4.350000
X 0.000000 4.260845 4.350000
X 1.230000 4.970986 4.350000
X -1.230000 6.391267 4.350000
X 0.000000 7.101408 4.350000
X -2.460000 8.521690 4.350000
X -1.230000 9.231831 4.350000
X -3.690000 10.652112 4.350000
X -2.460000 11.362253 4.350000
X -4.920000 12.782535 4.350000
X -3.690000 13.492676 4.350000
X -6.150000 14.912957 4.350000
X -4.920000 15.623098 4.350000
X -7.380000 17.043380 4.350000
X -6.150000 17.753521 4.350000
X -8.610000 19.173802 4.350000
X -7.380000 19.883943 4.350000
X -9.840000 21.304225 4.350000
X -8.610000 22.014366 4.350000
X -11.070000 23.434647 4.350000
X -9.840000 24.144788 4.350000
X -12.300000 25.565070 4.350000
X -11.070000 26.275211 4.350000
X -13.530000 27.695492 4.350000
X -12.300000 28.405633 4.350000
X -14.760000 29.825915 4.350000
X -13.530000 30.536056 4.350000
X -15.990000 31.956337 4.350000
X -14.760000 32.666478 4.350000
X -17.220000 34.086760 4.350000
X -15.990000 34.796901 4.350000
X -18.450000 36.217182 4.350000
X -17.220000 36.927323 4.350000
X -19.680000 38.347605 4.350000
X -18.450000 39.057746 4.350000
X -20.910000 40.478027 4.350000
X -19.680000 41.188168 4.350000
X -22.140000 42.608450 4.350000
X -20.910000 43.318591 4.350000
X -23.370000 44.738872 4.350000
X -22.140000 45.449013 4.350000
X -24.600000 46.869295 4.350000
X -23.370000 47.579436 4.350000
X -25.830000 48.999717 4.350000
X -24.600000 49.709858 4.350000
X -27.060000 51.130140 4.350000
X -25.830000 51.840281 4.350000
X 4.920000 0.000000 4.350000
X 6.150000 0.710141 4.350000
X 3.690000 2.130422 4.350000
X 4.920000 2.840563 4.350000
X 2.460000 4.260845 4.350000
X 3.690000 4.970986 4.350000
X 1.230000 6.391267 4.350000
X 2.460000 7.101408 4.350000
X 0.000000 8.521690 4.350000
X 1.230000 9.231831 4.350000
X -1.230000 10.652112 4.350000
X -0.000000 11.362253 4.350000
X -2.460000 12.782535 4.350000
X -1.230000 13.492676 4.350000
X -3.690000 14.912957 4.350000
X -2.460000 15.623098 4.350000
X -4.920000 17.043380 4.350000
X -3.690000 17.753521 4.350000
X -6.150000 19.173802 4.350000
X -4.920000 19.883943 4.350000
X -7.380000 21.304225 4.350000
X -6.150000 22.014366 4.350000
X -8.610000 23.434647 4.350000
X -7.380000 24.144788 4.350000
X -9.840000 25.565070 4.350000
X -8.610000 26.275211 4.350000
X -11.070000 27.695492 4.350000
X -9.840000 28.405633 4.350000
X -12.300000 29.825915 4.350000
X -11.070000 30.536056 4.350000
X -13.530000 31.956337 4.350000
X -12.300000 32.666478 4.350000
X -14.760000 34.086760 4.350000
X -13.530000 34.796901 4.350000
X -15.990000 36.217182 4.350000
X -14.760000 36.927323 4.350000
X -17.220000 38.347605 4.350000
X -15.990000 39.057746 4.350000
X -18.450000 40.478027 4.350000
X -17.220000 41.188168 4.350000
X -19.680000 42.608450 4.350000
X -18.450000 43.318591 4.350000
X -20.910000 44.738872 4.350000
X -19.680000 45.449013 4.350000
X -22.140000 46.869295 4.350000
X -20.910000 47.579436 4.350000
X -23.370000 48.999717 4.350000
X -22.140000 49.709858 4.350000
X -24.600000 51.130140 4.350000
X -23.370000 51.840281 4.350000
X 7.380000 0.000000 4.350000
X 8.610000 0.710141 4.350000
X 6.150000 2.130422 4.350000
X 7.380000 2.840563 4.350000
X 4.920000 4.260845 4.350000
X 6.150000 4.970986 4.350000
X 3.690000 6.391267 4.350000
X 4.920000 7.101408 4.350000
X 2.460000 8.521690 4.350000
X 3.690000 9.231831 4.350000
X 1.230000 10.652112 4.350000
X 2.460000 11.362253 4.350000
X 0.000000 12.782535 4.350000
X 1.230000 13.492676 4.350000
X -1.230000 14.912957 4.350000
X 0.000000 15.623098 4.350000
X -2.460000 17.043380 4.350000
X -1.230000 17.753521 4.350000
X -3.690000 19.173802 4.350000
X -2.460000 19.883943 4.350000
X -4.920000 21.304225 4.350000
X -3.690000 22.014366 4.350000
X -6.150000 23.434647 4.350000
X -4.920000 24.144788 4.350000
X -7.380000 25.565070 4.350000
X -6.150000 26.275211 4.350000
X -8.610000 27.695492 4.350000
X -7.380000 28.405633 4.350000
X -9.840000 29.825915 4.350000
X -8.610000 30.536056 4.350000
X -11.070000 31.956337 4.350000
X -9.840000 32.666478 4.350000
X -12.300000 34.086760 4.350000
X -11.070000 34.796901 4.350000
X -13.530000 36.217182 4.350000
X -12.300000 36.927323 4.350000
X -14.760000 38.347605 4.350000
X -13.530000 39.057746 4.350000
X -15.990000 40.478027 4.350000
X -14.760000 41.188168 4.350000
X -17.220000 42.608450 4.350000
X -15.990000 43.318591 4.350000
X -18.450000 44.738872 4.350000
X -17.220000 45.449013 4.350000
X -19.680000 46.869295 4.350000
X -18.450000 47.579436 4.350000
X -20.910000 48.999717 4.350000
X -19.680000 49.709858 4.350000
X -22.140000 51.130140 4.350000
X -20.910000 51.840281 4.350000
X 9.840000 0.000000 4.350000
X 11.070000 0.710141 4.350000
X 8.610000 2.130422 4.350000
X 9.840000 2.840563 4.350000
X 7.380000 4.260845 4.350000
X 8.610000 4.970986 4.350000
X 6.150000 6.391267 4.350000
X 7.380000 7.101408 4.350000
X 4.920000 8.521690 4.350000
X 6.150000 9.231831 4.350000
X 3.690000 10.652112 4.350000
X 4.920000 11.362253 4.350000
X 2.460000 12.782535 4.350000
X 3.690000 13.492676 4.350000
X 1.230000 14.912957 4.350000
X 2.460000 15.623098 4.350000
X 0.000000 17.043380 4.350000
X 1.230000 17.753521 4.350000
X -1.230000 19.173802 4.350000
X -0.000000 19.883943 4.350000
X -2.460000 21.304225 4.350000
X -1.230000 22.014366 4.350000
X -3.690000 23.434647 4.350000
X -2.460000 24.144788 4.350000
X -4.920000 25.565070 4.350000
X -3.690000 26.275211 4.350000
X -6.150000 27.695492 4.350000
X -4.920000 28.405633 4.350000
X -7.380000 29.825915 4.350000
X -6.150000 30.536056 4.350000
X -8.610000 31.956337 4.350000
X -7.380000 32.666478 4.350000
X -9.840000 34.086760 4.350000
X -8.610000 34.796901 4.350000
X -11.070000 36.217182 4.350000
X -9.840000 36.927323 4.350000
X -12.300000 38.347605 4.350000
X -11.070000 39.057746 4.350000
X -13.530000 40.478027 4.350000
X -12.300000 41.188168 4.350000
X -14.760000 42.608450 4.350000
X -13.530000 43.318591 4.350000
X -15.990000 44.738872 4.350000
X -14.760000 45.449013 4.350000
X -17.220000 46.869295 4.350000
X -15.990000 47.579436 4.350000
X -18.450000 48.999717 4.350000
X -17.220000 49.709858 4.350000
X -19.680000 51.130140 4.350000
X -18.450000 51.840281 4.350000
X 12.300000 0.000000 4.350000
X 13.530000 0.710141 4.350000
X 11.070000 2.130422 4.350000
X 12.300000 2.840563 4.350000
X 9.840000 4.260845 4.350000
X 11.070000 4.970986 4.350000
X 8.610000 6.391267 4.350000
X 9.840000 7.101408 4.350000
X 7.380000 8.521690 4.350000
X 8.610000 9.231831 4.350000
X 6.150000 10.652112 4.350000
X 7.380000 11.362253 4.350000
X 4.920000 12.782535 4.350000
X 6.150000 13.492676 4.350000
X 3.690000 14.912957 4.350000
X 4.920000 15.623098 4.350000
X 2.460000 17.043380 4.350000
X 3.690000 17.753521 4.350000
X 1.230000 19.173802 4.350000
X 2.460000 19.883943 4.350000
X 0.000000 21.304225 4.350000
X 1.230000 22.014366 4.350000
X -1.230000 23.434647 4.350000
X 0.000000 24.144788 4.350000
X -2.460000 25.565070 4.350000
X -1.230000 26.275211 4.350000
X -3.690000 27.695492 4.350000
X -2.460000 28.405633 4.350000
X -4.920000 29.825915 4.350000
X -3.690000 30.536056 4.350000
X -6.150000 31.956337 4.350000
X -4.920000 32.666478 4.350000
X -7.380000 34.086760 4.350000
X -6.150000 34.796901 4.350000
X -8.610000 36.217182 4.350000
X -7.380000 36.927323 4.350000
X -9.840000 38.347605 4.350000
X -8.610000 39.057746 4.350000
X -11.070000 40.478027 4.350000
X -9.840000 41.188168 4.350000
X -12.300000 42.608450 4.350000
X -11.070000 43.318591 4.350000
X -13.530000 44.738872 4.350000
X -12.300000 45.449013 4.350000
X -14.760000 46.869295 4.350000
X -13.530000 47.579436 4.350000
X -15.990000 48.999717 4.350000
X -14.760000 49.709858 4.350000
X -17.220000 51.130140 4.350000
X -15.990000 51.840281 4.350000
X 14.760000 0.000000 4.350000
X 15.990000 0.710141 4.350000
X 13.530000 2.130422 4.350000
X 14.760000 2.840563 4.350000
X 12.300000 4.260845 4.350000
X 13.530000 4.970986 4.350000
X 11.070000 6.391267 4.350000
X 12.300000 7.101408 4.350000
X 9.840000 8.521690 4.350000
X 11.070000 9.231831 4.350000
X 8.610000 10.652112 4.350000
X 9.840000 11.362253 4.350000
X 7.380000 12.782535 4.350000
X 8.610000 13.492676 4.350000
X 6.150000 14.912957 4.350000
X 7.380000 15.623098 4.350000
X 4.920000 17.043380 4.350000
X 6.150000 17.753521 4.350000
X 3.690000 19.173802 4.350000
X 4.920000 19.883943 4.350000
X 2.460000 21.304225 4.350000
X 3.690000 22.014366 4.350000
X 1.230000 23.434647 4.350000
X 2.460000 24.144788 4.350000
X 0.000000 25.565070 4.350000
X 1.230000 26.275211 4.350000
X -1.230000 27.695492 4.350000
X -0.000000 28.405633 4.350000
X -2.460000 29.825915 4.350000
X -1.230000 30.536056 4.350000
X -3.690000 31.956337 4.350000
X -2.460000 32.666478 4.350000
X -4.920000 34.086760 4.350000
X -3.690000 34.796901 4.350000
X -6.150000 36.217182 4.350000
X -4.920000 36.927323 4.350000
X -7.380000 38.347605 4.350000
X -6.150000 39.057746 4.350000
X -8.610000 40.478027 4.350000
X -7.380000 41.188168 4.350000
X -9.840000 42.608450 4.350000
X -8.610000 43.318591 4.350000
X -11.070000 44.738872 4.350000
X -9.840000 45.449013 4.350000
X -12.300000 46.869295 4.350000
X -11.070000 47.579436 4.350000
X -13.530000 48.999717 4.350000
X -12.300000 49.709858 4.350000
X -14.760000 51.130140 4.350000
X -13.530000 51.840281 4.350000
X 17.220000 0.000000 4.350000
X 18.450000 0.710141 4.350000
X 15.990000 2.130422 4.350000
X 17.220000 2.840563 4.350000
X 14.760000 4.260845 4.350000
X 15.990000 4.970986 4.350000
X 13.530000 6.391267 4.350000
X 14.760000 7.101408 4.350000
X 12.300000 8.521690 4.350000
X 13.530000 9.231831 4.350000
X 11.070000 10.652112 4.350000
X 12.300000 11.362253 4.350000
X 9.840000 12.782535 4.350000
X 11.070000 13.492676 4.350000
X 8.610000 14.912957 4.350000
X 9.840000 15.623098 4.350000
X 7.380000 17.043380 4.350000
X 8.610000 17.753521 4.350000
X 6.150000 19.173802 4.350000
X 7.380000 19.883943 4.350000
X 4.920000 21.304225 4.350000
X 6.150000 22.014366 4.350000
X 3.690000 23.434647 4.350000
X 4.920000 24.144788 4.350000
X 2.460000 25.565070 4.350000
X 3.690000 26.275211 4.350000
X 1.230000 27.695492 4.350000
X 2.460000 28.405633 4.350000
X 0.000000 29.825915 4.350000
X 1.230000 30.536056 4.350000
X -1.230000 31.956337 4.350000
X -0.000000 32.666478 4.350000
X -2.460000 34.086760 4.350000
X -1.230000 34.796901 4.350000
X -3.690000 36.217182 4.350000
X -2.460000 36.927323 4.350000
X -4.920000 38.347605 4.350000
X -3.690000 39.057746 4.350000
X -6.150000 40.478027 4.350000
X -4.920000 41.188168 4.350000
X -7.380000 42.608450 4.350000
X -6.150000 43.318591 4.350000
X -8.610000 44.738872 4.350000
X -7.380000 45.449013 4.350000
X -9.840000 46.869295 4.350000
X -8.610000 47.579436 4.350000
X -11.070000 48.999717 4.350000
X -9.840000 49.709858 4.350000
X -12.300000 51.130140 4.350000
X -11.070000 51.840281 4.350000
X 19.680000 0.000000 4.350000
X 20.910000 0.710141 4.350000
X 18.450000 2.130422 4.350000
X 19.680000 2.840563 4.350000
X 17.220000 4.260845 4.350000
X 18.450000 4.970986 4.350000
X 15.990000 6.391267 4.350000
X 17.220000 7.101408 4.350000
X 14.760000 8.521690 4.350000
X 15.990000 9.231831 4.350000
X 13.530000 10.652112 4.350000
X 14.760000 11.362253 4.350000
X 12.300000 12.782535 4.350000
X 13.530000 13.492676 4.350000
X 11.070000 14.912957 4.350000
X 12.300000 15.623098 4.350000
X 9.840000 17.043380 4.350000
X 11.070000 17.753521 4.350000
X 8.610000 19.173802 4.350000
X 9.840000 19.883943 4.350000
X 7.380000 21.304225 4.350000
X 8.610000 22.014366 4.350000
X 6.150000 23.434647 4.350000
X 7.380000 24.144788 4.350000
X 4.920000 25.565070 4.350000
X 6.150000 26.275211 4.350000
X 3.690000 27.695492 4.350000
X 4.920000 28.405633 4.350000
X 2.460000 29.825915 4.350000
X 3.690000 30.536056 4.350000
X 1.230000 31.956337 4.350000
X 2.460000 32.666478 4.350000
X 0.000000 34.086760 4.350000
X 1.230000 34.796901 4.350000
X -1.230000 36.217182 4.350000
X -0.000000 36.927323 4.350000
X -2.460000 38.347605 4.350000
X -1.230000 39.057746 4.350000
X -3.690000 40.478027 4.350000
X -2.460000 41.188168 4.350000
X -4.920000 42.608450 4.350000
X -3.690000 43.318591 4.350000
X -6.150000 44.738872 4.350000
X -4.920000 45.449013 4.350000
X -7.380000 46.869295 4.350000
X -6.150000 47.579436 4.350000
X -8.610000 48.999717 4.350000
X -7.380000 49.709858 4.350000
X -9.840000 51.130140 4.350000
X -8.610000 51.840281 4.350000
X 22.140000 0.000000 4.350000
X 23.370000 0.710141 4.350000
X 20.910000 2.130422 4.350000
X 22.140000 2.840563 4.350000
X 19.680000 4.260845 4.350000
X 20.910000 4.970986 4.350000
X 18.450000 6.391267 4.350000
X 19.680000 7.101408 4.350000
X 17.220000 8.521690 4.350000
X 18.450000 9.231831 4.350000
X 15.990000 10.652112 4.350000
X 17.220000 11.362253 4.350000
X 14.760000 12.782535 4.350000
X 15.990000 13.492676 4.350000
X 13.530000 14.912957 4.350000
X 14.760000 15.623098 4.350000
X 12.300000 17.043380 4.350000
X 13.530000 17.753521 4.350000
X 11.070000 19.173802 4.350000
X 12.300000 19.883943 4.350000
X 9.840000 21.304225 4.350000
X 11.070000 22.014366 4.350000
X 8.610000 23.434647 4.350000
X 9.840000 24.144788 4.350000
X 7.380000 25.565070 4.350000
X 8.610000 26.275211 4.350000
X 6.150000 27.695492 4.350000
X 7.380000 28.405633 4.350000
X 4.920000 29.825915 4.350000
X 6.150000 30.536056 4.350000
X 3.690000 31.956337 4.350000
X 4.920000 32.666478 4.350000
X 2.460000 34.086760 4.350000
X 3.690000 34.796901 4.350000
X 1.230000 36.217182 4.350000
X 2.460000 36.927323 4.350000
X 0.000000 38.347605 4.350000
X 1.230000 39.057746 4.350000
X -1.230000 40.478027 4.350000
X -0.000000 41.188168 4.350000
X -2.460000 42.608450 4.350000
X -1.230000 43.318591 4.350000
X -3.690000 44.738872 4.350000
X -2.460000 45.449013 4.350000
X -4.920000 46.869295 4.350000
X -3.690000 47.579436 4.350000
X -6.150000 48.999717 4.350000
X -4.920000 49.709858 4.350000
X -7.380000 51.130140 4.350000
X -6.150000 51.840281 4.350000
X 24.600000 0.000000 4.350000
X 25.830000 0.710141 4.350000
X 23.370000 2.130422 4.350000
X 24.600000 2.840563 4.350000
X 22.140000 4.260845 4.350000
X 23.370000 4.970986 4.350000
X 20.910000 6.391267 4.350000
X 22.140000 7.101408 4.350000
X 19.680000 8.521690 4.350000
X 20.910000 9.231831 4.350000
X 18.450000 10.652112 4.350000
X 19.680000 11.362253 4.350000
X 17.220000 12.782535 4.350000
X 18.450000 13.492676 4.350000
X 15.990000 14.912957 4.350000
X 17.220000 15.623098 4.350000
X 14.760000 17.043380 4.350000
X 15.990000 17.753521 4.350000
X 13.530000 19.173802 4.350000
X 14.760000 19.883943 4.350000
X 12.300000 21.304225 4.350000
X 13.530000 22.014366 4.350000
X 11.070000 23.434647 4.350000
X 12.300000 24.144788 4.350000
X 9.840000 25.565070 4.350000
X 11.070000 26.275211 4.350000
X 8.610000 27.695492 4.350000
X 9.840000 28.405633 4.350000
X 7.380000 29.825915 4.350000
X 8.610000 30.536056 4.350000
X 6.150000 31.956337 4.350000
X 7.380000 32.666478 4.350000
X 4.920000 34.086760 4.350000
X 6.150000 34.796901 4.350000
X 3.690000 36.217182 4.350000
X 4.920000 36.927323 4.350000
X 2.460000 38.347605 4.350000
X 3.690000 39.057746 4.350000
X 1.230000 40.478027 4.350000
X 2.460000 41.188168 4.350000
X 0.000000 42.608450 4.350000
X 1.230000 43.318591 4.350000
X -1.230000 44.738872 4.350000
X 0.000000 45.449013 4.350000
X -2.460000 46.869295 4.350000
X -1.230000 47.579436 4.350000
X -3.690000 48.999717 4.350000
X -2.460000 49.709858 4.350000
X -4.920000 51.130140 4.350000
X -3.690000 51.840281 4.350000
X 27.060000 0.000000 4.350000
X 28.290000 0.710141 4.350000
X 25.830000 2.130422 4.350000
X 27.060000 2.840563 4.350000
X 24.600000 4.260845 4.350000
X 25.830000 4.970986 4.350000
X 23.370000 6.391267 4.350000
X 24.600000 7.101408 4.350000
X 22.140000 8.521690 4.350000
X 23.370000 9.231831 4.350000
X 20.910000 10.652112 4.350000
X 22.140000 11.362253 4.350000
X 19.680000 12.782535 4.350000
X 20.910000 13.492676 4.350000
X 18.450000 14.912957 4.350000
X 19.680000 15.623098 4.350000
X 17.220000 17.043380 4.350000
X 18.450000 17.753521 4.350000
X 15.990000 19.173802 4.350000
X 17.220000 19.883943 4.350000
X 14.760000 21.304225 4.350000
X 15.990000 22.014366 4.350000
X 13.530000 23.434647 4.350000
X 14.760000 24.144788 4.350000
X 12.300000 25.565070 4.350000
X 13.530000 26.275211 4.350000
X 11.070000 27.695492 4.350000
X 12.300000 28.405633 4.350000
X 9.840000 29.825915 4.350000
X 11.070000 30.536056 4.350000
X 8.610000 31.956337 4.350000
X 9.840000 32.666478 4.350000
X 7.380000 34.086760 4.350000
X 8.610000 34.796901 4.350000
X 6.150000 36.217182 4.350000
X 7.380000 36.927323 4.350000
X 4.920000 38.347605 4.350000
X 6.150000 39.057746 4.350000
X 3.690000 40.478027 4.350000
X 4.920000 41.188168 4.350000
X 2.460000 42.608450 4.350000
X 3.690000 43.318591 4.350000
X 1.230000 44.738872 4.350000
X 2.460000 45.449013 4.350000
X 0.000000 46.869295 4.350000
X 1.230000 47.579436 4.350000
X -1.230000 48.999717 4.350000
X -0.000000 49.709858 4.350000
X -2.460000 51.130140 4.350000
X -1.230000 51.840281 4.350000
X 29.520000 0.000000 4.350000
X 30.750000 0.710141 4.350000
X 28.290000 2.130422 4.350000
X 29.520000 2.840563 4.350000
X 27.060000 4.260845 4.350000
X 28.290000 4.970986 4.350000
X 25.830000 6.391267 4.350000
X 27.060000 7.101408 4.350000
X 24.600000 8.521690 4.350000
X 25.830000 9.231831 4.350000
X 23.370000 10.652112 4.350000
X 24.600000 11.362253 4.350000
X 22.140000 12.782535 4.350000
X 23.370000 13.492676 4.350000
X 20.910000 14.912957 4.350000
X 22.140000 15.623098 4.350000
X 19.680000 17.043380 4.350000
X 20.910000 17.753521 4.350000
X 18.450000 19.173802 4.350000
X 19.680000 19.883943 4.350000
X 17.220000 21.304225 4.350000
X 18.450000 22.014366 4.350000
X 15.990000 23.434647 4.350000
X 17.220000 24.144788 4.350000
X 14.760000 25.565070 4.350000
X 15.990000 26.275211 4.350000
X 13.530000 27.695492 4.350000
X 14.760000 28.405633 4.350000
X 12.300000 29.825915 4.350000
X 13.530000 30.536056 4.350000
X 11.070000 31.956337 4.350000
X 12.300000 32.666478 4.350000
X 9.840000 34.086760 4.350000
X 11.070000 34.796901 4.350000
X 8.610000 36.217182 4.350000
X 9.840000 36.927323 4.350000
X 7.380000 38.347605 4.350000
X 8.610000 39.057746 4.350000
X 6.150000 40.478027 4.350000
X 7.380000 41.188168 4.350000
X 4.920000 42.608450 4.350000
X 6.150000 43.318591 4.350000
X 3.690000 44.738872 4.350000
X 4.920000 45.449013 4.350000
X 2.460000 46.869295 4.350000
X 3.690000 47.579436 4.350000
X 1.230000 48.999717 4.350000
X 2.460000 49.709858 4.350000
X 0.000000 51.130140 4.350000
X 1.230000 51.840281 4.350000
X 31.980000 0.000000 4.350000
X 33.210000 0.710141 4.350000
X 30.750000 2.130422 4.350000
X 31.980000 2.840563 4.350000
X 29.520000 4.260845 4.350000
X 30.750000 4.970986 4.350000
X 28.290000 6.391267 4.350000
X 29.520000 7.101408 4.350000
X 27.060000 8.521690 4.350000
X 28.290000 9.231831 4.350000
X 25.830000 10.652112 4.350000
X 27.060000 11.362253 4.350000
X 24.600000 12.782535 4.350000
X 25.830000 13.492676 4.350000
X 23.370000 14.912957 4.350000
X 24.600000 15.623098 4.350000
X 22.140000 17.043380 4.350000
X 23.370000 17.753521 4.350000
X 20.910000 19.173802 4.350000
X 22.140000 19.883943 4.350000
X 19.680000 21.304225 4.350000
X 20.910000 22.014366 4.350000
X 18.450000 23.434647 4.350000
X 19.680000 24.144788 4.350000
X 17.220000 25.565070 4.350000
X 18.450000 26.275211 4.350000
X 15.990000 27.695492 4.350000
X 17.220000 28.405633 4.350000
X 14.760000 29.825915 4.350000
X 15.990000 30.536056 4.350000
X 13.530000 31.956337 4.350000
X 14.760000 32.666478 4.350000
X 12.300000 34.086760 4.350000
X 13.530000 34.796901 4.350000
X 11.070000 36.217182 4.350000
X 12.300000 36.927323 4.350000
X 9.840000 38.347605 4.350000
X 11.070000 39.057746 4.350000
X 8.610000 40.478027 4.350000
X 9.840000 41.188168 4.350000
X 7.380000 42.608450 4.350000
X 8.610000 43.318591 4.350000
X 6.150000 44.738872 4.350000
X 7.380000 45.449013 4.350000
X 4.920000 46.869295 4.350000
X 6.150000 47.579436 4.350000
X 3.690000 48.999717 4.350000
X 4.920000 49.709858 4.350000
X 2.460000 51.130140 4.350000
X 3.690000 51.840281 4.350000
X 34.440000 0.000000 4.350000
X 35.670000 0.710141 4.350000
X 33.210000 2.130422 4.350000
X 34.440000 2.840563 4.350000
X 31.980000 4.260845 4.350000
X 33.210000 4.970986 4.350000
X 30.750000 6.391267 4.350000
X 31.980000 7.101408 4.350000
X 29.520000 8.521690 4.350000
X 30.750000 9.231831 4.350000
X 28.290000 10.652112 4.350000
X 29.520000 11.362253 4.350000
X 27.060000 12.782535 4.350000
X 28.290000 13.492676 4.350000
X 25.830000 14.912957 4.350000
X 27.060000 15.623098 4.350000
X 24.600000 17.043380 4.350000
X 25.830000 17.753521 4.350000
X 23.370000 19.173802 4.350000
X 24.600000 19.883943 4.350000
X 22.140000 21.304225 4.350000
X 23.370000 22.014366 4.350000
X 20.910000 23.434647 4.350000
X 22.140000 24.144788 4.350000
X 19.680000 25.565070 4.350000
X 20.910000 26.275211 4.350000
X 18.450000 27.695492 4.350000
X 19.680000 28.405633 4.350000
X 17.220000 29.825915 4.350000
X 18.450000 30.536056 4.350000
X 15.990000 31.956337 4.350000
X 17.220000 32.666478 4.350000
X 14.760000 34.086760 4.350000
X 15.990000 34.796901 4.350000
X 13.530000 36.217182 4.350000
X 14.760000 36.927323 4.350000
X 12.300000 38.347605 4.350000
X 13.530000 39.057746 4.350000
X 11.070000 40.478027 4.350000
X 12.300000 41.188168 4.350000
X 9.840000 42.608450 4.350000
X 11.070000 43.318591 4.350000
X 8.610000 44.738872 4.350000
X 9.840000 45.449013 4.350000
X 7.380000 46.869295 4.350000
X 8.610000 47.579436 4.350000
X 6.150000 48.999717 4.350000
X 7.380000 49.709858 4.350000
X 4.920000 51.130140 4.350000
X 6.150000 51.840281 4.350000
X 36.900000 0.000000 4.350000
X 38.130000 0.710141 4.350000
X 35.670000 2.130422 4.350000
X 36.900000 2.840563 4.350000
X 34.440000 4.260845 4.350000
X 35.670000 4.970986 4.350000
X 33.210000 6.391267 4.350000
X 34.440000 7.101408 4.350000
X 31.980000 8.521690 4.350000
X 33.210000 9.231831 4.350000
X 30.750000 10.652112 4.350000
X 31.980000 11.362253 4.350000
X 29.520000 12.782535 4.350000
X 30.750000 13.492676 4.350000
X 28.290000 14.912957 4.350000
X 29.520000 15.623098 4.350000
X 27.060000 17.043380 4.350000
X 28.290000 17.753521 4.350000
X 25.830000 19.173802 4.350000
X 27.060000 19.883943 4.350000
X 24.600000 21.304225 4.350000
X 25.830000 22.014366 4.350000
X 23.370000 23.434647 4.350000
X 24.600000 24.144788 4.350000
X 22.140000 25.565070 4.350000
X 23.370000 26.275211 4.350000
X 20.910000 27.695492 4.350000
X 22.140000 28.405633 4.350000
X 19.680000 29.825915 4.350000
X 20.910000 30.536056 4.350000
X 18.450000 31.956337 4.350000
X 19.680000 32.666478 4.350000
X 17.220000 34.086760 4.350000
X 18.450000 34.796901 4.350000
X 15.990000 36.217182 4.350000
X 17.220000 36.927323 4.350000
X 14.760000 38.347605 4.350000
X 15.990000 39.057746 4.350000
X 13.530000 40.478027 4.350000
X 14.760000 41.188168 4.350000
X 12.300000 42.608450 4.350000
X 13.530000 43.318591 4.350000
X 11.070000 44.738872 4.350000
X 12.300000 45.449013 4.350000
X 9.840000 46.869295 4.350000
X 11.070000 47.579436 4.350000
X 8.610000 48.999717 4.350000
X 9.840000 49.709858 4.350000
X 7.380000 51.130140 4.350000
X 8.610000 51.840281 4.350000
X 39.360000 0.000000 4.350000
X 40.590000 0.710141 4.350000
X 38.130000 2.130422 4.350000
X 39.360000 2.840563 4.350000
X 36.900000 4.260845 4.350000
X 38.130000 4.970986 4.350000
X 35.670000 6.391267 4.350000
X 36.900000 7.101408 4.350000
X 34.440000 8.521690 4.350000
X 35.670000 9.231831 4.350000
X 33.210000 10.652112 4.350000
X 34.440000 11.362253 4.350000
X 31.980000 12.782535 4.350000
X 33.210000 13.492676 4.350000
X 30.750000 14.912957 4.350000
X 31.980000 15.623098 4.350000
X 29.520000 17.043380 4.350000
X 30.750000 17.753521 4.350000
X 28.290000 19.173802 4.350000
X 29.520000 19.883943 4.350000
X 27.060000 21.304225 4.350000
X 28.290000 22.014366 4.350000
X 25.830000 23.434647 4.350000
X 27.060000 24.144788 4.350000
X 24.600000 25.565070 4.350000
X 25.830000 26.275211 4.350000
X 23.370000 27.695492 4.350000
X 24.600000 28.405633 4.350000
X 22.140000 29.825915 4.350000
X 23.370000 30.536056 4.350000
X 20.910000 31.956337 4.350000
X 22.140000 32.666478 4.350000
X 19.680000 34.086760 4.350000
X 20.910000 34.796901 4.350000
X 18.450000 36.217182 4.350000
X 19.680000 36.927323 4.350000
X 17.220000 38.347605 4.350000
X 18.450000 39.057746 4.350000
X 15.990000 40.478027 4.350000
X 17.220000 41.188168 4.350000
X 14.760000 42.608450 4.350000
X 15.990000 43.318591 4.350000
X 13.530000 44.738872 4.350000
X 14.760000 45.449013 4.350000
X 12.300000 46.869295 4.350000
X 13.530000 47.579436 4.350000
X 11.070000 48.999717 4.350000
X 12.300000 49.709858 4.350000
X 9.840000 51.130140 4.350000
X 11.070000 51.840281 4.350000
X 41.820000 0.000000 4.350000
X 43.050000 0.710141 4.350000
X 40.590000 2.130422 4.350000
X 41.820000 2.840563 4.350000
X 39.360000 4.260845 4.350000
X 40.590000 4.970986 4.350000
X 38.130000 6.391267 4.350000
X 39.360000 7.101408 4.350000
X 36.900000 8.521690 4.350000
X 38.130000 9.231831 4.350000
X 35.670000 10.652112 4.350000
X 36.900000 11.362253 4.350000
X 34.440000 12.782535 4.350000
X 35.670000 13.492676 4.350000
X 33.210000 14.912957 4.350000
X 34.440000 15.623098 4.350000
X 31.980000 17.043380 4.350000
X 33.210000 17.753521 4.350000
X 30.750000 19.173802 4.350000
X 31.980000 19.883943 4.350000
X 29.520000 21.304225 4.350000
X 30.750000 22.014366 4.350000
X 28.290000 23.434647 4.350000
X 29.520000 24.144788 4.350000
X 27.060000 25.565070 4.350000
X 28.290000 26.275211 4.350000
X 25.830000 27.695492 4.350000
X 27.060000 28.405633 4.350000
X 24.600000 29.825915 4.350000
X 25.830000 30.536056 4.350000
X 23.370000 31.956337 4.350000
X 24.600000 32.666478 4.350000
X 22.140000 34.086760 4.350000
X 23.370000 34.796901 4.350000
X 20.910000 36.217182 4.350000
X 22.140000 36.927323 4.350000
X 19.680000 38.347605 4.350000
X 20.910000 39.057746 4.350000
X 18.450000 40.478027 4.350000
X 19.680000 41.188168 4.350000
X 17.220000 42.608450 4.350000
X 18.450000 43.318591 4.350000
X 15.990000 44.738872 4.350000
X 17.220000 45.449013 4.350000
X 14.760000 46.869295 4.350000
X 15.990000 47.579436 4.350000
X 13.530000 48.999717 4.350000
X 14.760000 49.709858 4.350000
X 12.300000 51.130140 4.350000
X 13.530000 51.840281 4.350000
X 44.280000 0.000000 4.350000
X 45.510000 0.710141 4.350000
X 43.050000 2.130422 4.350000
X 44.280000 2.840563 4.350000
X 41.820000 4.260845 4.350000
X 43.050000 4.970986 4.350000
X 40.590000 6.391267 4.350000
X 41.820000 7.101408 4.350000
X 39.360000 8.521690 4.350000
X 40.590000 9.231831 4.350000
X 38.130000 10.652112 4.350000
X 39.360000 11.362253 4.350000
X 36.900000 12.782535 4.350000
X 38.130000 13.492676 4.350000
X 35.670000 14.912957 4.350000
X 36.900000 15.623098 4.350000
X 34.440000 17.043380 4.350000
X 35.670000 17.753521 4.350000
X 33.210000 19.173802 4.350000
X 34.440000 19.883943 4.350000
X 31.980000 21.304225 4.350000
X 33.210000 22.014366 4.350000
X 30.750000 23.434647 4.350000
X 31.980000 24.144788 4.350000
X 29.520000 25.565070 4.350000
X 30.750000 26.275211 4.350000
X 28.290000 27.695492 4.350000
X 29.520000 28.405633 4.350000
X 27.060000 29.825915 4.350000
X 28.290000 30.536056 4.350000
X 25.830000 31.956337 4.350000
X 27.060000 32.666478 4.350000
X 24.600000 34.086760 4.350000
X 25.830000 34.796901 4.350000
X 23.370000 36.217182 4.350000
X 24.600000 36.927323 4.350000
X 22.140000 38.347605 4.350000
X 23.370000 39.057746 4.350000
X 20.910000 40.478027 4.350000
X 22.140000 41.188168 4.350000
X 19.680000 42.608450 4.350000
X 20.910000 43.318591 4.350000
X 18.450000 44.738872 4.350000
X 19.680000 45.449013 4.350000
X 17.220000 46.869295 4.350000
X 18.450000 47.579436 4.350000
X 15.990000 48.999717 4.350000
X 17.220000 49.709858 4.350000
X 14.760000 51.130140 4.350000
X 15.990000 51.840281 4.350000
X 46.740000 0.000000 4.350000
X 47.970000 0.710141 4.350000
X 45.510000 2.130422 4.350000
X 46.740000 2.840563 4.350000
X 44.280000 4.260845 4.350000
X 45.510000 4.970986 4.350000
X 43.050000 6.391267 4.350000
X 44.280000 7.101408 4.350000
X 41.820000 8.521690 4.350000
X 43.050000 9.231831 4.350000
X 40.590000 10.652112 4.350000
X 41.820000 11.362253 4.350000
X 39.360000 12.782535 4.350000
X 40.590000 13.492676 4.350000
X 38.130000 14.912957 4.350000
X 39.360000 15.623098 4.350000
X 36.900000 17.043380 4.350000
X 38.130000 17.753521 4.350000
X 35.670000 19.173802 4.350000
X 36.900000 19.883943 4.350000
X 34.440000 21.304225 4.350000
X 35.670000 22.014366 4.350000
X 33.210000 23.434647 4.350000
X 34.440000 24.144788 4.350000
X 31.980000 25.565070 4.350000
X 33.210000 26.275211 4.350000
X 30.750000 27.695492 4.350000
X 31.980000 28.405633 4.350000
X 29.520000 29.825915 4.350000
X 30.750000 30.536056 4.350000
X 28.290000 31.956337 4.350000
X 29.520000 32.666478 4.350000
X 27.060000 34.086760 4.350000
X 28.290000 34.796901 4.350000
X 25.830000 36.217182 4.350000
X 27.060000 36.927323 4.350000
X 24.600000 38.347605 4.350000
X 25.830000 39.057746 4.350000
X 23.370000 40.478027 4.350000
X 24.600000 41.188168 4.350000
X 22.140000 42.608450 4.350000
X 23.370000 43.318591 4.350000
X 20.910000 44.738872 4.350000
X 22.140000 45.449013 4.350000
X 19.680000 46.869295 4.350000
X 20.910000 47.579436 4.350000
X 18.450000 48.999717 4.350000
X 19.680000 49.709858 4.350000
X 17.220000 51.130140 4.350000
X 18.450000 51.840281 4.350000
X 49.200000 0.000000 4.350000
X 50.430000 0.710141 4.350000
X 47.970000 2.130422 4.350000
X 49.200000 2.840563 4.350000
X 46.740000 4.260845 4.350000
X 47.970000 4.970986 4.350000
X 45.510000 6.391267 4.350000
X 46.740000 7.101408 4.350000
X 44.280000 8.521690 4.350000
X 45.510000 9.231831 4.350000
X 43.050000 10.652112 4.350000
X 44.280000 11.362253 4.350000
X 41.820000 12.782535 4.350000
X 43.050000 13.492676 4.350000
X 40.590000 14.912957 4.350000
X 41.820000 15.623098 4.350000
X 39.360000 17.043380 4.350000
X 40.590000 17.753521 4.350000
X 38.130000 19.173802 4.350000
X 39.360000 19.883943 4.350000
X 36.900000 21.304225 4.350000
X 38.130000 22.014366 4.350000
X 35.670000 23.434647 4.350000
X 36.900000 24.144788 4.350000
X 34.440000 25.565070 4.350000
X 35.670000 26.275211 4.350000
X 33.210000 27.695492 4.350000
X 34.440000 28.405633 4.350000
X 31.980000 29.825915 4.350000
X 33.210000 30.536056 4.350000
X 30.750000 31.956337 4.350000
X 31.980000 32.666478 4.350000
X 29.520000 34.086760 4.350000
X 30.750000 34.796901 4.350000
X 28.290000 36.217182 4.350000
X 29.520000 36.927323 4.350000
X 27.060000 38.347605 4.350000
X 28.290000 39.057746 4.350000
X 25.830000 40.478027 4.350000
X 27.060000 41.188168 4.350000
X 24.600000 42.608450 4.350000
X 25.830000 43.318591 4.350000
X 23.370000 44.738872 4.350000
X 24.600000 45.449013 4.350000
X 22.140000 46.869295 4.350000
X 23.370000 47.579436 4.350000
X 20.910000 48.999717 4.350000
X 22.140000 49.709858 4.350000
X 19.680000 51.130140 4.350000
X 20.910000 51.840281 4.350000
X 51.660000 0.000000 4.350000
X 52.890000 0.710141 4.350000
X 50.430000 2.130422 4.350000
X 51.660000 2.840563 4.350000
X 49.200000 4.260845 4.350000
X 50.430000 4.970986 4.350000
X 47.970000 6.391267 4.350000
X 49.200000 7.101408 4.350000
X 46.740000 8.521690 4.350000
X 47.970000 9.231831 4.350000
X 45.510000 10.652112 4.350000
X 46.740000 11.362253 4.350000
X 44.280000 12.782535 4.350000
X 45.510000 13.492676 4.350000
X 43.050000 14.912957 4.350000
X 44.280000 15.623098 4.350000
X 41.820000 17.043380 4.350000
X 43.050000 17.753521 4.350000
X 40.590000 19.173802 4.350000
X 41.820000 19.883943 4.350000
X 39.360000 21.304225 4.350000
X 40.590000 22.014366 4.350000
X 38.130000 23.434647 4.350000
X 39.360000 24.144788 4.350000
X 36.900000 25.565070 4.350000
X 38.130000 26.275211 4.350000
X 35.670000 27.695492 4.350000
X 36.900000 28.405633 4.350000
X 34.440000 29.825915 4.350000
X 35.670000 30.536056 4.350000
X 33.210000 31.956337 4.350000
X 34.440000 32.666478 4.350000
X 31.980000 34.086760 4.350000
X 33.210000 34.796901 4.350000
X 30.750000 36.217182 4.350000
X 31.980000 36.927323 4.350000
X 29.520000 38.347605 4.350000
X 30.750000 39.057746 4.350000
X 28.290000 40.478027 4.350000
X 29.520000 41.188168 4.350000
X 27.060000 42.608450 4.350000
X 28.290000 43.318591 4.350000
X 25.830000 44.738872 4.350000
X 27.060000 45.449013 4.350000
X 24.600000 46.869295 4.350000
X 25.830000 47.579436 4.350000
X 23.370000 48.999717 4.350000
X 24.600000 49.709858 4.350000
X 22.140000 51.130140 4.350000
X 23.370000 51.840281 4.350000
X 54.120000 0.000000 4.350000
X 55.350000 0.710141 4.350000
X 52.890000 2.130422 4.350000
X 54.120000 2.840563 4.350000
X 51.660000 4.260845 4.350000
X 52.890000 4.970986 4.350000
X 50.430000 6.391267 4.350000
X 51.660000 7.101408 4.350000
X 49.200000 8.521690 4.350000
X 50.430000 9.231831 4.350000
X 47.970000 10.652112 4.350000
X 49.200000 11.362253 4.350000
X 46.740000 12.782535 4.350000
X 47.970000 13.492676 4.350000
X 45.510000 14.912957 4.350000
X 46.740000 15.623098 4.350000
X 44.280000 17.043380 4.350000
X 45.510000 17.753521 4.350000
X 43.050000 19.173802 4.350000
X 44.280000 19.883943 4.350000
X 41.820000 21.304225 4.350000
X 43.050000 22.014366 4.350000
X 40.590000 23.434647 4.350000
X 41.820000 24.144788 4.350000
X 39.360000 25.565070 4.350000
X 40.590000 26.275211 4.350000
X 38.130000 27.695492 4.350000
X 39.360000 28.405633 4.350000
X 36.900000 29.825915 4.350000
X 38.130000 30.536056 4.350000
X 35.670000 31.956337 4.350000
X 36.900000 32.666478 4.350000
X 34.440000 34.086760 4.350000
X 35.670000 34.796901 4.350000
X 33.210000 36.217182 4.350000
X 34.440000 36.927323 4.350000
X 31.980000 38.347605 4.350000
X 33.210000 39.057746 4.350000
X 30.750000 40.478027 4.350000
X 31.980000 41.188168 4.350000
X 29.520000 42.608450 4.350000
X 30.750000 43.318591 4.350000
X 28.290000 44.738872 4.350000
X 29.520000 45.449013 4.350000
X 27.060000 46.869295 4.350000
X 28.290000 47.579436 4.350000
X 25.830000 48.999717 4.350000
X 27.060000 49.709858 4.350000
X 24.600000 51.130140 4.350000
X 25.830000 51.840281 4.350000
X 56.580000 0.000000 4.350000
X 57.810000 0.710141 4.350000
X 55.350000 2.130422 4.350000
X 56.580000 2.840563 4.350000
X 54.120000 4.260845 4.350000
X 55.350000 4.970986 4.350000
X 52.890000 6.391267 4.350000
X 54.120000 7.101408 4.350000
X 51.660000 8.521690 4.350000
X 52.890000 9.231831 4.350000
X 50.430000 10.652112 4.350000
X 51.660000 11.362253 4.350000
X 49.200000 12.782535 4.350000
X 50.430000 13.492676 4.350000
X 47.970000 14.912957 4.350000
X 49.200000 15.623098 4.350000
X 46.740000 17.043380 4.350000
X 47.970000 17.753521 4.350000
X 45.510000 19.173802 4.350000
X 46.740000 19.883943 4.350000
X 44.280000 21.304225 4.350000
X 45.510000 22.014366 4.350000
X 43.050000 23.434647 4.350000
X 44.280000 24.144788 4.350000
X 41.820000 25.565070 4.350000
X 43.050000 26.275211 4.350000
X 40.590000 27.695492 4.350000
X 41.820000 28.405633 4.350000
X 39.360000 29.825915 4.350000
X 40.590000 30.536056 4.350000
X 38.130000 31.956337 4.350000
X 39.360000 32.666478 4.350000
X 36.900000 34.086760 4.350000
X 38.130000 34.796901 4.350000
X 35.670000 36.217182 4.350000
X 36.900000 36.927323 4.350000
X 34.440000 38.347605 4.350000
X 35.670000 39.057746 4.350000
X 33.210000 40.478027 4.350000
X 34.440000 41.188168 4.350000
X 31.980000 42.608450 4.350000
X 33.210000 43.318591 4.350000
X 30.750000 44.738872 4.350000
X 31.980000 45.449013 4.350000
X 29.520000 46.869295 4.350000
X 30.750000 47.579436 4.350000
X 28.290000 48.999717 4.350000
X 29.520000 49.709858 4.350000
X 27.060000 51.130140 4.350000
X 28.290000 51.840281 4.350000
X 59.040000 0.000000 4.350000
X 60.270000 0.710141 4.350000
X 57.810000 2.130422 4.350000
X 59.040000 2.840563 4.350000
X 56.580000 4.260845 4.350000
X 57.810000 4.970986 4.350000
X 55.350000 6.391267 4.350000
X 56.580000 7.101408 4.350000
X 54.120000 8.521690 4.350000
X 55.350000 9.231831 4.350000
X 52.890000 10.652112 4.350000
X 54.120000 11.362253 4.350000
X 51.660000 12.782535 4.350000
X 52.890000 13.492676 4.350000
X 50.430000 14.912957 4.350000
X 51.660000 15.623098 4.350000
X 49.200000 17.043380 4.350000
X 50.430000 17.753521 4.350000
X 47.970000 19.173802 4.350000
X 49.200000 19.883943 4.350000
X 46.740000 21.304225 4.350000
X 47.970000 22.014366 4.350000
X 45.510000 23.434647 4.350000
X 46.740000 24.144788 4.350000
X 44.280000 25.565070 4.350000
X 45.510000 26.275211 4.350000
X 43.050000 27.695492 4.350000
X 44.280000 28.405633 4.350000
X 41.820000 29.825915 4.350000
X 43.050000 30.536056 4.350000
X 40.590000 31.956337 4.350000
X 41.820000 32.666478 4.350000
X 39.360000 34.086760 4.350000
X 40.590000 34.796901 4.350000
X 38.130000 36.217182 4.350000
X 39.360000 36.927323 4.350000
X 36.900000 38.347605 4.350000
X 38.130000 39.057746 4.350000
X 35.670000 40.478027 4.350000
X 36.900000 41.188168 4.350000
X 34.440000 42.608450 4.350000
X 35.670000 43.318591 4.350000
X 33.210000 44.738872 4.350000
X 34.440000 45.449013 4.350000
X 31.980000 46.869295 4.350000
X 33.210000 47.579436 4.350000
X 30.750000 48.999717 4.350000
X 31.980000 49.709858 4.350000
X 29.520000 51.130140 4.350000
X 30.750000 51.840281 4.350000
O 10.507392 25.642748 7.855925
C 10.967213 26.574773 8.488816
C 12.438561 26.940075 8.504990
C 13.483141 25.966293 8.489043
C 14.839261 26.391731 8.490829
C 15.892063 25.444115 8.493583
C 13.221722 24.573717 8.503448
C 14.267738 23.638241 8.496478
C 15.601828 24.065558 8.493771
C 16.645449 23.121690 8.498152
C 17.982668 23.550421 8.512303
C 18.279939 24.923413 8.514242
C 17.239446 25.872303 8.499962
C 17.537411 27.245331 8.494058
C 16.498453 28.189502 8.490092
C 15.156000 27.767453 8.496162
C 14.128748 28.719993 8.506405
C 12.787574 28.312412 8.516482
N 10.139766 27.430482 9.186057
C 8.679063 27.279301 9.275107
C 8.250261 26.141567 10.228809
O 6.820921 25.971992 10.140140
C 6.007817 26.513992 11.204119
C 6.010421 28.066816 11.185387
O 7.158092 28.592134 11.885975
C 7.104162 28.525931 13.322644
C 8.382598 29.194848 13.871018
O 8.424835 29.113120 15.313329
C 7.439892 29.872650 16.045251
C 6.380151 28.899373 16.615009
O 5.262224 29.645996 17.131984
C 5.495237 30.408386 18.328821
C 4.151571 31.037373 18.778323
O 3.690610 32.018818 17.828443
C 4.484588 33.206012 17.689022
C 3.771250 34.142374 16.817040
C 3.167197 34.890382 16.083648
H 12.210600 24.185030 8.524367
H 14.034541 22.577423 8.501429
H 16.420489 22.059660 8.493372
H 18.787329 22.819540 8.520740
H 19.316108 25.247551 8.526476
H 18.570581 27.580929 8.493075
H 16.738527 29.248920 8.485998
H 14.368134 29.779688 8.497790
H 12.017387 29.078341 8.492778
H 10.588355 28.167500 9.708789
H 8.249648 28.231176 9.606060
H 8.288597 27.059345 8.271380
H 8.746932 25.216526 9.908276
H 8.574103 26.359347 11.254928
H 4.972987 26.182743 11.054144
H 6.329778 26.127881 12.178144
H 6.007961 28.405175 10.141014
H 5.085080 28.433727 11.646749
H 6.220349 29.059430 13.692333
H 7.067126 27.487622 13.674154
H 9.254323 28.679830 13.447687
H 8.421321 30.240886 13.540731
H 7.926632 30.396315 16.875975
H 6.954567 30.624325 15.409222
H 6.831558 28.275566 17.396917
H 6.031332 28.231755 15.819288
H 5.857298 29.750701 19.129556
H 6.248182 31.189214 18.170594
H 3.407263 30.236638 18.875640
H 4.276005 31.495135 19.768525
H 5.458382 32.981228 17.237594
H 4.646949 33.681139 18.664561
H 2.620588 35.534476 15.431355
O 5.558000 45.650281 47.139000
H 4.860000 45.828281 47.769000
H 5.800000 46.511281 46.799000
O 19.166000 36.832281 42.702000
H 19.724000 36.627281 43.451000
H 18.900000 37.741281 42.842000
O 18.284000 30.516281 43.202000
H 17.649000 31.199281 42.991000
H 18.817000 30.891281 43.903000
O 7.667000 31.595281 44.583000
H 8.005000 31.487281 43.694000
H 6.965000 30.947281 44.653000
O 20.942000 30.057281 36.378000
H 21.685000 29.530281 36.083000
H 20.900000 30.782281 35.755000
O 12.078000 39.678281 46.607000
H 12.766000 39.025281 46.733000
H 11.611000 39.386281 45.824000
O 7.738000 35.108281 56.717000
H 8.469000 35.215281 57.326000
H 7.433000 35.999281 56.550000
O 9.540000 43.816281 43.005000
H 10.439000 43.569281 42.789000
H 9.469000 43.661281 43.947000
O 5.099000 43.607281 54.750000
H 5.483000 43.541281 55.624000
H 4.415000 42.938281 54.737000
O 8.542000 41.827281 41.657000
H 9.377000 41.361281 41.616000
H 8.733000 42.616281 42.164000
O 18.346000 43.792281 42.556000
H 19.296000 43.767281 42.442000
H 18.206000 44.418281 43.266000
O 3.715000 31.468281 52.413000
H 2.780000 31.555281 52.228000
H 4.121000 31.359281 51.553000
O 16.118000 28.106281 40.247000
H 16.775000 27.434281 40.065000
H 15.387000 27.891281 39.669000
O 13.533000 43.706281 53.627000
H 13.568000 42.962281 54.229000
H 12.644000 43.686281 53.272000
O 2.333000 39.923281 39.765000
H 3.196000 39.843281 40.171000
H 2.045000 40.808281 39.987000
O 8.456000 38.147281 41.955000
H 8.353000 37.240281 42.244000
H 8.367000 38.666281 42.754000
O 6.687000 51.013281 50.256000
H 7.243000 51.679281 50.659000
H 5.826000 51.425281 50.192000
O 10.431000 41.740281 64.463000
H 9.693000 41.206281 64.756000
H 11.108000 41.598281 65.125000
O 41.759000 3.060719 50.109000
H 41.384000 3.582719 50.818000
H 41.920000 2.202719 50.502000
O 28.708000 36.595281 38.788000
H 28.267000 36.407281 39.616000
H 28.268000 37.376281 38.453000
O 22.014000 48.721281 35.831000
H 22.031000 47.764281 35.814000
H 21.902000 48.943281 36.755000
O 12.457000 31.561281 43.192000
H 12.975000 32.263281 42.799000
H 13.097000 31.022281 43.657000
O 13.857000 33.140281 41.441000
H 13.265000 32.768281 40.788000
H 14.029000 34.029281 41.130000
O 3.952000 34.334281 51.311000
H 3.815000 33.411281 51.523000
H 4.204000 34.737281 52.143000
O 4.784000 43.222281 45.209000
H 5.242000 43.625281 45.946000
H 4.298000 43.941281 44.805000
O 15.902000 36.818281 52.434000
H 16.270000 37.658281 52.161000
H 15.031000 37.035281 52.767000
O 9.387000 28.631281 43.062000
H 9.872000 28.583281 42.238000
H 9.752000 29.394281 43.510000
O 15.409000 35.063281 36.006000
H 15.992000 35.512281 36.618000
H 14.728000 35.706281 35.806000
O 11.188000 41.399281 50.685000
H 11.024000 41.653281 49.776000
H 10.326000 41.166281 51.028000
O 26.567000 32.776281 56.177000
H 26.168000 33.351281 56.830000
H 25.951000 32.049281 56.090000
O 16.009000 36.705281 45.445000
H 15.859000 36.871281 44.514000
H 15.873000 35.763281 45.546000
O 25.029000 47.634281 36.223000
H 24.640000 47.546281 37.093000
H 25.238000 48.565281 36.146000
O 7.595000 35.018281 36.578000
H 8.391000 35.086281 36.050000
H 7.195000 34.193281 36.303000
O 14.325000 31.850281 48.246000
H 13.400000 31.802281 48.006000
H 14.500000 31.022281 48.694000
O 18.981000 47.575281 39.503000
H 19.831000 47.177281 39.692000
H 18.601000 47.748281 40.364000
O 6.478000 34.575281 47.243000
H 5.614000 34.201281 47.419000
H 7.057000 33.816281 47.170000
O 12.216000 34.600281 48.424000
H 12.526000 34.565281 47.519000
H 12.297000 35.521281 48.670000
O 8.077000 41.706281 53.002000
H 7.758000 40.938281 53.477000
H 7.825000 42.449281 53.550000
O 10.334000 32.208281 48.759000
H 10.665000 32.026281 49.639000
H 10.700000 33.064281 48.537000
O 12.982000 36.439281 35.679000
H 12.730000 35.607281 36.080000
H 12.228000 37.011281 35.821000
O 1.567000 38.037281 52.947000
H 1.455000 38.684281 52.251000
H 1.750000 38.557281 53.730000
O 6.328000 37.074281 40.359000
H 7.023000 37.536281 40.829000
H 5.904000 36.535281 41.026000
O 17.988000 33.790281 50.503000
H 18.707000 33.361281 50.040000
H 17.429000 34.139281 49.808000
O 12.972000 35.382281 38.656000
H 12.749000 36.255281 38.979000
H 12.255000 34.825281 38.958000
O 34.416000 0.230719 42.166000
H 34.139000 1.140719 42.270000
H 33.669000 -0.201281 41.753000
O 12.605000 44.581281 64.247000
H 12.899000 45.202281 64.913000
H 11.683000 44.796281 64.108000
O 0.568000 49.272281 43.549000
H 0.281000 49.544281 42.677000
H 1.502000 49.480281 43.571000
O 16.205000 32.368281 42.691000
H 16.799000 33.119281 42.708000
H 15.458000 32.666281 42.172000
O 14.735000 43.005281 47.328000
H 15.129000 42.625281 48.113000
H 14.343000 43.825281 47.629000
O 11.899000 30.947281 46.937000
H 11.322000 30.675281 46.223000
H 11.309000 31.111281 47.673000
O 6.180000 37.610281 51.885000
H 5.761000 36.896281 52.368000
H 5.497000 38.276281 51.802000
O 7.207000 45.318281 42.248000
H 8.091000 45.097281 42.541000
H 7.320000 45.605281 41.342000
O 1.010000 31.721281 52.422000
H 0.814000 32.036281 51.540000
H 0.631000 30.842281 52.453000
O 16.556000 45.362281 36.571000
H 17.336000 45.259281 37.116000
H 16.786000 44.943281 35.741000
O 27.054000 41.218281 38.698000
H 26.258000 41.663281 38.988000
H 27.764000 41.809281 38.949000
O 12.947000 28.690281 41.366000
H 13.575000 28.218281 40.819000
H 13.379000 28.765281 42.217000
O 13.157000 40.467281 39.195000
H 12.845000 39.577281 39.362000
H 12.932000 40.632281 38.280000
O 3.305000 38.745281 43.869000
H 3.682000 38.072281 43.302000
H 3.816000 39.532281 43.681000
O 16.731000 30.255281 53.369000
H 17.624000 30.178281 53.707000
H 16.840000 30.362281 52.425000
O 31.325000 3.341719 37.652000
H 32.217000 3.684719 37.604000
H 31.226000 2.815719 36.859000
O 9.095000 29.959281 51.933000
H 8.797000 29.662281 51.073000
H 9.826000 30.547281 51.743000
O 7.306000 40.158281 43.546000
H 6.404000 40.300281 43.260000
H 7.819000 40.799281 43.053000
O 6.529000 27.793281 47.211000
H 6.452000 28.431281 47.921000
H 7.223000 27.198281 47.497000
O 11.045000 40.875281 41.740000
H 11.582000 40.426281 41.088000
H 11.599000 41.588281 42.057000
O 6.288000 29.370281 45.062000
H 6.371000 28.828281 45.847000
H 6.391000 28.757281 44.334000
O 1.728000 51.318281 41.438000
H 2.340000 50.696281 41.831000
H 1.332000 50.837281 40.711000
O 10.864000 38.164281 35.498000
H 10.320000 37.410281 35.729000
H 10.793000 38.751281 36.250000
O 35.453000 0.284719 38.336000
H 35.847000 0.569719 37.512000
H 36.196000 0.025719 38.881000
O 12.567000 35.829281 52.147000
H 11.814000 36.153281 51.652000
H 12.886000 36.594281 52.626000
O 15.386000 37.835281 40.511000
H 14.586000 38.295281 40.258000
H 16.092000 38.443281 40.291000
O 1.688000 36.187281 46.986000
H 1.319000 37.035281 47.232000
H 2.622000 36.357281 46.866000
O 12.234000 45.146281 40.494000
H 12.875000 44.436281 40.532000
H 11.554000 44.824281 39.903000
O 11.679000 29.321281 63.526000
H 11.960000 28.554281 64.025000
H 12.319000 29.997281 63.745000
O 6.143000 35.644281 44.646000
H 5.604000 36.309281 45.074000
H 6.497000 35.123281 45.367000
O 35.890000 2.432719 46.347000
H 35.990000 2.725719 45.441000
H 36.372000 3.079719 46.863000
O 6.595000 33.133281 41.062000
H 6.466000 32.828281 40.164000
H 5.783000 32.901281 41.513000
O 6.895000 51.994281 39.664000
H 7.079000 51.090281 39.409000
H 6.771000 51.955281 40.613000
O 15.397000 34.124281 45.881000
H 15.856000 33.294281 46.011000
H 14.476000 33.915281 46.037000
O 16.694000 31.911281 46.756000
H 16.546000 31.277281 46.055000
H 15.889000 31.890281 47.273000
O 14.767000 37.938281 37.408000
H 14.075000 37.346281 37.114000
H 15.574000 37.434281 37.303000
O 5.799000 35.714281 60.969000
H 5.063000 35.431281 61.511000
H 6.498000 35.904281 61.594000
O 17.294000 40.175281 40.300000
H 16.990000 40.237281 39.395000
H 16.886000 40.920281 40.742000
O 16.730000 30.944281 40.066000
H 16.758000 30.002281 40.231000
H 16.326000 31.314281 40.851000
O 33.802000 2.968719 42.297000
H 33.009000 3.422719 42.581000
H 33.742000 2.955719 41.341000
O 24.708000 41.364281 52.911000
H 24.482000 41.844281 53.707000
H 25.634000 41.145281 53.017000
O 10.667000 41.367281 48.129000
H 9.994000 40.791281 48.493000
H 11.207000 40.792281 47.587000
O 14.020000 46.689281 51.935000
H 13.789000 46.813281 52.856000
H 14.876000 47.108281 51.844000
O 15.698000 40.475281 43.951000
H 14.902000 40.951281 44.186000
H 15.402000 39.581281 43.778000
O 20.042000 38.910281 48.134000
H 19.376000 38.421281 47.650000
H 20.239000 38.360281 48.892000
O 40.893000 1.656719 46.350000
H 41.650000 1.464719 46.903000
H 40.645000 0.809719 45.980000
O 13.284000 40.500281 53.207000
H 12.358000 40.529281 52.969000
H 13.729000 40.210281 52.410000
O 8.584000 35.201281 39.221000
H 8.267000 35.153281 38.320000
H 7.889000 35.657281 39.696000
O 8.847000 36.387281 47.313000
H 9.060000 36.798281 48.151000
H 8.099000 35.821281 47.508000
O 12.893000 28.465281 46.086000
H 12.067000 27.982281 46.088000
H 12.794000 29.114281 46.782000
O 3.498000 37.890281 55.027000
H 3.662000 38.540281 54.344000
H 3.831000 38.294281 55.828000
O 0.963000 45.194281 40.716000
H 0.888000 45.460281 39.800000
H 1.682000 45.723281 41.062000
O 1.369000 32.300281 44.750000
H 1.594000 33.000281 45.363000
H 2.150000 31.748281 44.719000
O 15.732000 41.061281 38.054000
H 14.939000 40.574281 38.281000
H 15.431000 41.959281 37.920000
O 13.443000 36.901281 49.451000
H 13.450000 37.743281 49.906000
H 14.131000 36.391281 49.878000
O 14.189000 28.620281 43.917000
H 13.557000 28.484281 44.624000
H 14.392000 27.739281 43.604000
O 3.615000 46.055281 48.928000
H 2.945000 46.270281 48.278000
H 3.495000 45.120281 49.096000
O 4.351000 32.848281 47.296000
H 4.163000 32.326281 48.076000
H 4.209000 32.248281 46.564000
O 13.588000 37.802281 53.581000
H 13.086000 37.469281 54.325000
H 13.433000 38.747281 53.590000
O 16.306000 27.522281 53.802000
H 15.431000 27.237281 53.537000
H 16.405000 28.388281 53.408000
O 33.719000 3.035719 49.919000
H 33.548000 2.620719 49.073000
H 33.014000 2.723719 50.486000
O 2.581000 40.903281 48.784000
H 2.938000 40.541281 47.973000
H 1.670000 40.608281 48.799000
O 12.749000 33.609281 46.148000
H 12.011000 34.127281 45.827000
H 12.347000 32.822281 46.515000
O 10.912000 30.916281 40.929000
H 11.397000 31.150281 41.720000
H 11.504000 30.337281 40.447000
O 29.608000 29.933281 45.459000
H 30.143000 30.678281 45.183000
H 30.220000 29.198281 45.496000
O 1.328000 35.475281 51.965000
H 2.177000 35.262281 51.579000
H 1.419000 36.380281 52.262000
O 12.264000 37.204281 42.681000
H 11.861000 37.795281 43.317000
H 11.746000 36.401281 42.737000
O 19.502000 41.185281 52.922000
H 20.076000 41.490281 52.219000
H 19.661000 40.243281 52.971000
O 0.702000 27.719281 40.432000
H 0.161000 28.503281 40.537000
H 0.213000 27.172281 39.817000
O 45.317000 1.619719 38.691000
H 44.440000 1.396719 38.378000
H 45.362000 2.572719 38.619000
O 11.051000 35.617281 45.749000
H 11.722000 36.198281 46.107000
H 10.240000 35.898281 46.173000
O 7.569000 44.353281 53.947000
H 7.807000 44.689281 53.083000
H 6.612000 44.331281 53.942000
O 20.644000 42.483281 50.481000
H 20.386000 43.242281 51.005000
H 21.597000 42.450281 50.559000
O 10.462000 40.420281 53.632000
H 9.680000 40.967281 53.557000
H 10.138000 39.583281 53.965000
O 45.082000 2.040719 64.211000
H 44.970000 2.236719 63.281000
H 45.960000 2.361719 64.420000
O 17.307000 36.631281 62.735000
H 17.751000 37.107281 63.437000
H 16.401000 36.553281 63.033000
O 15.049000 37.975281 43.181000
H 14.186000 37.562281 43.166000
H 15.369000 37.896281 42.282000
O 0.814000 31.702281 39.948000
H 0.299000 31.977281 39.189000
H 0.260000 31.062281 40.395000
O 0.924000 32.247281 49.692000
H 1.313000 32.695281 48.941000
H 0.540000 31.451281 49.325000
O 5.196000 29.689281 58.084000
H 4.827000 30.532281 57.821000
H 5.553000 29.321281 57.275000
O 15.712000 34.434281 49.015000
H 15.063000 33.743281 49.154000
H 15.737000 34.552281 48.066000
O 10.843000 31.851281 51.508000
H 10.808000 32.758281 51.811000
H 11.778000 31.657281 51.437000
O 28.561000 46.783281 64.436000
H 28.394000 46.146281 63.741000
H 28.008000 46.495281 65.163000
O 6.093000 48.048281 46.071000
H 6.417000 47.997281 45.172000
H 6.666000 48.686281 46.497000
O 11.101000 38.935281 44.292000
H 10.212000 38.652281 44.508000
H 10.980000 39.659281 43.678000
O 8.779000 37.935281 45.163000
H 8.198000 38.623281 45.487000
H 8.659000 37.210281 45.776000
O 4.878000 35.509281 53.603000
H 5.141000 34.889281 54.283000
H 4.482000 36.237281 54.081000
O 13.598000 39.354281 59.498000
H 12.794000 38.839281 59.567000
H 13.869000 39.255281 58.586000
O 5.474000 30.976281 39.149000
H 5.791000 30.436281 38.425000
H 4.634000 30.586281 39.389000
O 19.697000 32.533281 48.952000
H 19.377000 31.785281 49.457000
H 20.651000 32.459281 48.994000
O 30.080000 41.526281 58.172000
H 29.655000 41.075281 57.442000
H 29.370000 41.708281 58.788000
O 38.497000 2.656719 42.283000
H 39.244000 2.086719 42.462000
H 38.821000 3.539719 42.461000
O 6.077000 48.926281 52.162000
H 6.232000 49.774281 51.747000
H 6.346000 49.051281 53.072000
O 4.069000 34.108281 35.276000
H 3.616000 33.267281 35.214000
H 3.468000 34.669281 35.766000
O 1.603000 33.435281 47.366000
H 2.534000 33.213281 47.378000
H 1.585000 34.392281 47.390000
O 18.488000 36.985281 46.811000
H 18.380000 36.114281 47.195000
H 17.663000 37.150281 46.355000
O 19.012000 44.847281 37.645000
H 18.855000 43.964281 37.312000
H 19.880000 45.078281 37.316000
O 20.462000 41.900281 45.683000
H 20.647000 41.149281 45.119000
H 19.507000 41.923281 45.747000
O 13.717000 42.923281 40.988000
H 13.754000 42.129281 40.455000
H 14.609000 43.032281 41.319000
O 29.019000 33.121281 47.351000
H 29.958000 33.172281 47.526000
H 28.942000 33.260281 46.407000
O 29.928000 39.906281 51.771000
H 29.131000 39.420281 51.984000
H 29.846000 40.102281 50.837000
O 6.995000 29.079281 42.054000
H 7.853000 29.223281 42.451000
H 7.025000 29.571281 41.233000
O 48.060000 0.966719 63.655000
H 47.747000 0.805719 62.765000
H 49.002000 1.103719 63.558000
O 12.393000 38.028281 40.097000
H 12.126000 37.779281 40.982000
H 11.581000 38.021281 39.591000
O 10.763000 34.158281 39.737000
H 10.702000 34.234281 40.690000
H 9.929000 34.501281 39.416000
O 8.359000 39.940281 48.996000
H 7.776000 39.857281 48.241000
H 8.406000 39.057281 49.362000
O 11.990000 41.462281 36.617000
H 11.695000 42.352281 36.813000
H 12.786000 41.582281 36.099000
O 26.158000 45.979281 44.426000
H 25.772000 46.804281 44.718000
H 27.076000 46.035281 44.692000
O 45.735000 1.182719 45.012000
H 46.410000 1.392719 44.367000
H 45.812000 0.237719 45.141000
O 12.967000 46.594281 36.092000
H 12.493000 47.274281 35.614000
H 13.687000 47.059281 36.519000
O 13.516000 41.757281 45.134000
H 12.932000 41.101281 45.515000
H 13.881000 42.220281 45.888000
O 8.527000 31.644281 42.027000
H 9.254000 31.554281 41.411000
H 7.929000 32.261281 41.605000
O 14.114000 42.178281 65.120000
H 13.838000 43.061281 64.877000
H 14.097000 41.686281 64.299000
O 6.722000 40.241281 46.362000
H 5.817000 40.554281 46.342000
H 7.075000 40.474281 45.503000
O 23.168000 42.572281 46.253000
H 23.547000 41.966281 45.616000
H 22.223000 42.438281 46.178000
O 10.717000 35.100281 42.560000
H 10.913000 34.929281 43.481000
H 9.777000 35.278281 42.544000
O 7.971000 32.365281 47.198000
H 8.088000 31.939281 46.349000
H 8.861000 32.496281 47.525000
O 4.743000 41.217281 37.527000
H 4.711000 41.945281 38.148000
H 4.846000 41.636281 36.672000
O 44.140000 2.351719 43.133000
H 43.403000 2.827719 43.517000
H 44.545000 1.898719 43.873000
O 7.870000 42.156281 39.202000
H 8.055000 41.769281 40.058000
H 7.788000 41.406281 38.613000
O 3.116000 43.406281 49.164000
H 4.036000 43.153281 49.089000
H 2.630000 42.620281 48.913000
O 6.572000 30.304281 48.408000
H 7.219000 29.990281 49.040000
H 7.041000 30.956281 47.888000
O 13.648000 37.076281 46.793000
H 13.672000 36.948281 47.741000
H 14.551000 36.934281 46.509000
O 14.824000 43.952281 38.364000
H 15.521000 43.926281 39.019000
H 15.240000 44.325281 37.586000
O 10.163000 37.848281 54.050000
H 11.015000 37.570281 54.389000
H 9.528000 37.466281 54.657000
O 16.368000 42.170281 41.890000
H 16.353000 41.576281 42.641000
H 17.130000 42.728281 42.041000
O 5.202000 29.753281 54.949000
H 5.637000 30.262281 54.265000
H 4.433000 30.272281 55.183000
O 15.525000 42.834281 51.914000
H 14.654000 42.751281 52.303000
H 16.093000 42.317281 52.486000
O 3.198000 49.520281 43.348000
H 3.134000 48.930281 44.099000
H 4.081000 49.379281 43.007000
O 18.425000 33.850281 46.802000
H 19.094000 33.421281 47.335000
H 17.747000 33.184281 46.685000
O 12.233000 27.026281 64.692000
H 13.133000 26.702281 64.709000
H 11.694000 26.236281 64.643000
O 2.517000 34.282281 41.935000
H 2.391000 34.275281 40.986000
H 1.683000 33.974281 42.291000
O 14.811000 29.623281 49.506000
H 14.356000 28.789281 49.386000
H 14.383000 30.024281 50.262000
O 18.909000 41.311281 48.653000
H 19.568000 41.750281 49.192000
H 19.230000 40.414281 48.565000
O 14.719000 40.026281 63.085000
H 14.173000 40.270281 62.338000
H 15.498000 40.576281 63.002000
O 11.610000 47.350281 38.854000
H 11.902000 47.023281 38.003000
H 11.848000 46.658281 39.471000
O 11.444000 43.773281 52.119000
H 11.613000 42.902281 51.759000
H 11.789000 44.376281 51.461000
O 7.901000 35.556281 42.443000
H 7.565000 35.695281 43.328000
H 7.299000 34.921281 42.054000
O 4.294000 31.973281 42.450000
H 3.658000 31.282281 42.265000
H 3.760000 32.744281 42.644000
O 20.256000 43.264281 39.937000
H 20.056000 42.375281 39.645000
H 20.020000 43.820281 39.195000
O 8.138000 37.316281 49.816000
H 7.435000 37.148281 50.443000
H 8.942000 37.219281 50.326000
O 3.492000 40.772281 45.856000
H 2.696000 40.583281 45.360000
H 3.850000 41.559281 45.446000
O 7.785000 42.415281 50.456000
H 7.870000 42.078281 51.348000
H 7.831000 41.637281 49.900000
O 4.452000 36.273281 42.324000
H 3.704000 35.682281 42.234000
H 4.962000 35.907281 43.046000
O 23.180000 42.418281 50.722000
H 23.768000 42.000281 51.352000
H 23.697000 43.131281 50.347000
O 10.140000 36.500281 51.429000
H 10.119000 37.106281 52.170000
H 9.803000 35.676281 51.783000
O 5.710000 43.209281 42.586000
H 6.309000 43.930281 42.393000
H 5.648000 43.197281 43.541000
O 12.347000 51.406281 47.485000
H 12.301000 52.321281 47.762000
H 11.725000 50.952281 48.053000
O 38.239000 1.972719 50.955000
H 38.457000 1.314719 51.615000
H 37.463000 2.412719 51.301000
O 10.123000 37.460281 38.578000
H 9.582000 36.683281 38.722000
H 9.526000 38.196281 38.708000
O 5.918000 43.435281 48.613000
H 6.565000 43.449281 49.319000
H 5.992000 44.296281 48.203000
O 45.657000 2.660719 61.648000
H 45.758000 1.709719 61.667000
H 46.541000 2.993719 61.495000
O 10.061000 31.494281 64.232000
H 10.666000 30.769281 64.074000
H 9.458000 31.163281 64.898000
O 50.641000 1.766719 48.630000
H 50.124000 1.299719 49.287000
H 51.548000 1.545719 48.838000
O 2.419000 35.644281 37.280000
H 2.269000 35.075281 38.035000
H 3.098000 36.253281 37.569000
O 9.711000 44.415281 39.451000
H 9.759000 44.475281 38.497000
H 9.275000 43.580281 39.618000
O 16.095000 42.664281 59.400000
H 16.967000 42.513281 59.764000
H 15.512000 42.650281 60.159000
O 19.916000 34.265281 63.445000
H 20.204000 34.666281 62.625000
H 18.989000 34.496281 63.512000
O 13.295000 31.344281 64.238000
H 13.906000 32.007281 63.917000
H 12.732000 31.814281 64.853000
O 19.959000 38.210281 53.139000
H 19.185000 37.863281 53.583000
H 20.607000 38.316281 53.836000
O 7.913000 36.272281 62.445000
H 8.248000 35.453281 62.812000
H 8.540000 36.936281 62.730000
O 9.442000 27.949281 62.724000
H 9.167000 27.448281 63.493000
H 10.164000 28.493281 63.037000
O 16.907000 31.608281 63.053000
H 16.671000 31.181281 63.877000
H 16.379000 31.161281 62.392000
O 3.280000 44.764281 59.437000
H 4.029000 44.328281 59.030000
H 3.285000 44.455281 60.343000
O 3.975000 38.005281 62.003000
H 3.394000 38.270281 62.716000
H 3.977000 37.048281 62.037000
O 9.551000 39.280281 57.619000
H 10.179000 38.700281 58.050000
H 8.918000 39.498281 58.303000
O 25.670000 34.103281 63.632000
H 25.859000 34.124281 64.570000
H 25.845000 33.199281 63.371000
O 20.003000 44.912281 51.742000
H 19.189000 45.325281 51.454000
H 19.957000 44.931281 52.697000
O 17.172000 34.465281 59.105000
H 17.060000 33.566281 58.795000
H 16.812000 35.008281 58.404000
O 13.393000 36.621281 57.925000
H 14.240000 36.594281 57.480000
H 13.565000 36.250281 58.790000
O 9.458000 38.200281 63.092000
H 10.167000 38.281281 63.729000
H 9.757000 38.701281 62.333000
O 6.265000 48.760281 57.017000
H 5.379000 48.412281 57.119000
H 6.834000 48.077281 57.374000
O 12.593000 33.787281 54.925000
H 13.532000 33.700281 55.089000
H 12.506000 33.699281 53.976000
O 17.266000 40.145281 35.371000
H 16.396000 40.266281 35.752000
H 17.249000 40.662281 34.565000
O 18.321000 46.502281 56.787000
H 18.200000 45.609281 56.462000
H 17.564000 46.657281 57.351000
O 4.061000 31.816281 56.930000
H 4.692000 32.382281 56.487000
H 3.439000 31.568281 56.246000
O 16.158000 27.880281 64.823000
H 16.036000 28.811281 65.011000
H 16.680000 27.864281 64.020000
O 17.522000 44.176281 55.853000
H 17.345000 43.279281 56.136000
H 16.835000 44.367281 55.215000
O 11.628000 32.691281 57.870000
H 11.480000 31.798281 57.560000
H 12.294000 32.600281 58.552000
O 3.295000 28.609281 61.370000
H 2.697000 28.979281 62.018000
H 3.995000 29.257281 61.292000
O 10.028000 39.574281 60.979000
H 10.400000 38.974281 60.333000
H 9.164000 39.796281 60.632000
O 1.875000 29.872281 63.366000
H 1.713000 30.781281 63.113000
H 1.004000 29.510281 63.529000
O 10.366000 35.667281 61.110000
H 11.091000 35.402281 61.677000
H 9.613000 35.731281 61.698000
O 1.087000 46.024281 37.999000
H 1.507000 45.375281 37.434000
H 1.590000 46.826281 37.859000
O 19.084000 36.240281 60.386000
H 18.574000 35.538281 59.981000
H 18.504000 36.602281 61.056000
O 21.754000 32.968281 60.850000
H 20.892000 33.086281 60.453000
H 22.055000 33.856281 61.042000
O 10.357000 45.609281 63.226000
H 9.417000 45.775281 63.292000
H 10.508000 45.449281 62.294000
O 16.104000 42.093281 56.575000
H 15.184000 41.920281 56.376000
H 16.118000 42.264281 57.517000
O 8.844000 42.775281 59.587000
H 8.274000 42.602281 60.336000
H 9.501000 43.386281 59.921000
O 15.211000 30.422281 61.118000
H 14.615000 29.675281 61.183000
H 14.699000 31.099281 60.677000
O 2.154000 44.183281 36.143000
H 2.133000 44.737281 35.363000
H 1.471000 43.530281 35.993000
O 14.303000 46.915281 56.803000
H 13.457000 47.002281 57.242000
H 14.761000 46.235281 57.297000
O 0.894000 27.892281 59.918000
H 1.628000 28.158281 60.473000
H 1.220000 27.996281 59.024000
O 5.176000 27.227281 54.024000
H 5.354000 28.116281 54.331000
H 5.587000 26.660281 54.677000
O 16.137000 38.021281 60.230000
H 15.373000 38.597281 60.211000
H 16.377000 37.972281 61.156000
O 7.348000 26.783281 37.648000
H 8.061000 27.323281 37.991000
H 7.100000 26.219281 38.381000
O 35.653000 1.410719 57.560000
H 36.338000 1.633719 56.931000
H 35.887000 1.893719 58.352000
O 16.757000 41.153281 53.660000
H 17.678000 41.410281 53.632000
H 16.423000 41.542281 54.468000
O 8.377000 32.423281 58.735000
H 8.243000 32.298281 57.796000
H 9.240000 32.831281 58.802000
O 13.802000 46.510281 62.618000
H 13.325000 45.765281 62.983000
H 13.365000 46.692281 61.786000
O 27.528000 35.225281 61.800000
H 28.130000 35.682281 62.387000
H 26.900000 34.798281 62.384000
O 11.282000 48.145281 64.468000
H 11.566000 48.869281 63.911000
H 11.043000 47.450281 63.855000
O 5.774000 33.482281 55.791000
H 6.208000 34.201281 56.250000
H 6.412000 32.768281 55.804000
O 8.558000 30.665281 36.850000
H 7.630000 30.568281 36.636000
H 8.779000 29.863281 37.325000
O 7.134000 30.170281 59.990000
H 6.349000 29.861281 59.538000
H 7.191000 31.099281 59.764000
O 16.735000 41.743281 63.031000
H 17.264000 41.750281 62.233000
H 16.637000 42.667281 63.262000
O 12.110000 27.899281 59.369000
H 12.562000 28.279281 60.122000
H 12.737000 27.275281 59.003000
O 13.525000 33.484281 52.368000
H 13.274000 34.354281 52.056000
H 14.478000 33.521281 52.440000
O 6.993000 39.340281 53.779000
H 6.926000 38.627281 53.144000
H 6.109000 39.702281 53.828000
O 13.959000 41.604281 60.857000
H 13.903000 40.924281 60.186000
H 13.049000 41.843281 61.033000
O 8.555000 29.597281 57.564000
H 8.141000 29.756281 58.412000
H 8.180000 30.262281 56.986000
O 2.243000 30.616281 55.233000
H 2.202000 30.616281 54.276000
H 1.762000 29.831281 55.493000
O 11.539000 33.416281 35.553000
H 10.927000 32.894281 35.033000
H 11.549000 32.991281 36.410000
O 15.802000 31.875281 37.715000
H 15.673000 32.781281 37.996000
H 16.187000 31.440281 38.476000
O 12.504000 35.178281 62.737000
H 12.573000 34.444281 63.348000
H 12.989000 35.888281 63.158000
O 7.795000 37.627281 55.811000
H 7.574000 38.261281 55.129000
H 8.473000 38.060281 56.330000
O 37.192000 2.084719 39.999000
H 37.662000 2.078719 40.832000
H 36.446000 2.665719 40.148000
O 13.571000 41.665281 55.646000
H 13.671000 41.118281 54.868000
H 12.641000 41.603281 55.866000
O 14.200000 32.814281 59.265000
H 15.009000 32.599281 58.801000
H 14.369000 33.669281 59.661000
O 8.819000 33.848281 63.465000
H 9.359000 33.084281 63.263000
H 8.027000 33.485281 63.861000
O 11.267000 27.117281 54.957000
H 11.774000 27.551281 55.644000
H 11.909000 26.584281 54.487000
O 5.235000 37.009281 37.785000
H 5.832000 36.371281 37.393000
H 5.549000 37.111281 38.683000
O 5.388000 30.715281 63.790000
H 5.029000 31.067281 62.975000
H 5.971000 30.009281 63.510000
O 18.857000 30.353281 62.078000
H 19.448000 30.940281 61.608000
H 18.145000 30.919281 62.379000
O 10.829000 31.788281 38.015000
H 10.015000 31.525281 37.585000
H 10.546000 32.256281 38.800000
O 45.477000 2.626719 51.574000
H 45.042000 3.457719 51.381000
H 46.210000 2.591719 50.959000
O 12.172000 36.624281 55.523000
H 12.456000 35.717281 55.414000
H 12.375000 36.831281 56.436000
O 13.023000 45.509281 60.048000
H 12.600000 46.075281 59.403000
H 13.770000 45.131281 59.584000
O 6.321000 33.240281 60.161000
H 6.224000 34.142281 60.465000
H 7.184000 33.218281 59.746000
O 29.434000 28.716281 63.432000
H 30.080000 28.011281 63.458000
H 28.899000 28.581281 64.214000
O 3.370000 38.899281 36.514000
H 3.580000 39.704281 36.988000
H 4.149000 38.351281 36.615000
O 7.909000 39.840281 64.819000
H 8.319000 39.148281 64.300000
H 7.115000 40.064281 64.334000
O 6.386000 33.177281 64.480000
H 5.606000 33.677281 64.717000
H 6.050000 32.326281 64.198000
O 9.220000 33.926281 52.281000
H 8.287000 33.781281 52.124000
H 9.371000 33.587281 53.163000
O 11.222000 37.702281 59.324000
H 10.669000 37.086281 59.804000
H 11.866000 37.150281 58.879000
O 17.435000 44.123281 64.361000
H 17.405000 44.640281 63.556000
H 18.352000 43.858281 64.442000
O 27.077000 38.474281 64.727000
H 26.122000 38.540281 64.717000
H 27.308000 38.470281 65.656000
O 13.402000 28.538281 52.821000
H 12.533000 28.378281 52.452000
H 13.287000 28.422281 53.764000
O 43.919000 2.210719 53.856000
H 44.360000 2.214719 53.006000
H 44.248000 1.424719 54.294000
O 15.279000 45.146281 58.582000
H 15.760000 44.354281 58.820000
H 15.602000 45.814281 59.188000
O 13.974000 35.964281 60.448000
H 13.389000 36.079281 61.197000
H 14.720000 36.534281 60.637000
O 10.946000 41.384281 56.285000
H 10.799000 40.948281 55.446000
H 10.546000 40.801281 56.931000
O 15.720000 53.120281 58.797000
H 15.373000 54.011281 58.737000
H 14.971000 52.558281 58.600000
O 7.970000 45.142281 50.114000
H 8.021000 44.201281 50.278000
H 7.038000 45.349281 50.190000
O 11.507000 41.886281 62.008000
H 10.995000 41.247281 61.511000
H 11.183000 41.807281 62.905000
O 15.597000 45.129281 54.317000
H 15.428000 46.031281 54.586000
H 14.730000 44.762281 54.146000
O 10.665000 44.410281 60.923000
H 11.552000 44.674281 60.675000
H 10.789000 43.621281 61.450000
O 7.800000 27.255281 64.830000
H 7.478000 27.207281 65.730000
H 7.070000 26.937281 64.298000
O 4.836000 43.514281 57.351000
H 4.205000 42.829281 57.571000
H 4.307000 44.215281 56.970000
O 3.485000 41.307281 63.789000
H 2.992000 40.487281 63.797000
H 3.402000 41.647281 64.679000
O 16.863000 39.194281 51.940000
H 16.730000 39.972281 52.483000
H 16.932000 39.533281 51.048000
O 20.234000 42.276281 58.308000
H 19.638000 41.630281 57.929000
H 20.851000 41.758281 58.826000
O 9.497000 33.356281 55.043000
H 10.406000 33.426281 55.333000
H 9.048000 34.079281 55.482000
O 4.688000 36.238281 56.720000
H 4.228000 35.510281 57.140000
H 4.001000 36.725281 56.265000
O 8.226000 44.704281 45.525000
H 8.857000 45.422281 45.564000
H 7.404000 45.089281 45.828000
O 7.796000 45.890281 63.661000
H 7.370000 45.062281 63.439000
H 7.136000 46.558281 63.475000
O 14.400000 37.189281 63.465000
H 14.583000 38.111281 63.282000
H 13.990000 37.193281 64.330000
O 13.175000 39.581281 50.435000
H 12.403000 40.135281 50.554000
H 13.609000 39.937281 49.660000
O 20.325000 43.520281 64.368000
H 20.534000 43.184281 63.497000
H 20.765000 42.918281 64.969000
O 0.822000 37.019281 59.971000
H 1.233000 36.462281 59.311000
H 0.695000 36.444281 60.726000
O 16.616000 30.548281 35.584000
H 17.325000 30.005281 35.928000
H 16.275000 31.012281 36.350000
O 4.514000 31.278281 61.428000
H 3.689000 31.655281 61.122000
H 5.188000 31.731281 60.921000
O 6.496000 42.091281 60.906000
H 6.575000 41.246281 61.348000
H 5.577000 42.140281 60.643000
O 7.621000 31.369281 55.866000
H 8.275000 31.956281 55.487000
H 7.225000 30.931281 55.112000
O 14.477000 52.981281 51.988000
H 14.755000 53.897281 51.998000
H 15.148000 52.532281 51.474000
O 13.520000 28.427281 61.432000
H 12.881000 28.491281 62.142000
H 14.076000 27.687281 61.674000
O 5.951000 27.004281 59.146000
H 6.378000 27.231281 59.972000
H 5.356000 27.734281 58.975000
O 2.900000 41.396281 57.575000
H 2.055000 41.483281 58.017000
H 3.259000 40.572281 57.904000
O 12.162000 48.881281 60.254000
H 11.393000 48.696281 59.715000
H 12.754000 49.357281 59.672000
O 14.780000 48.486281 37.134000
H 15.714000 48.431281 37.335000
H 14.367000 48.704281 37.970000
O 11.081000 26.668281 44.526000
H 10.537000 26.167281 45.134000
H 10.498000 27.348281 44.187000
O 14.620000 51.551281 37.094000
H 15.281000 51.747281 36.429000
H 14.387000 50.635281 36.938000
O 11.023000 52.837281 43.953000
H 10.698000 51.973281 44.207000
H 11.834000 52.944281 44.449000
O 8.350000 52.608281 52.158000
H 8.935000 51.860281 52.041000
H 7.813000 52.376281 52.916000
O 7.616000 52.543281 46.462000
H 6.739000 52.820281 46.731000
H 7.772000 51.735281 46.951000
O 28.999000 49.513281 47.806000
H 28.583000 49.534281 48.668000
H 29.937000 49.470281 47.993000
O 19.496000 46.256281 46.638000
H 19.189000 45.420281 46.991000
H 20.339000 46.402281 47.068000
O 22.747000 53.120281 43.532000
H 22.409000 53.757281 42.903000
H 23.179000 52.457281 42.994000
O 2.273000 53.106281 37.007000
H 2.628000 53.321281 37.870000
H 1.417000 52.718281 37.190000
O 18.637000 43.673281 47.312000
H 18.069000 43.488281 46.564000
H 18.950000 42.814281 47.595000
O 3.718000 45.349281 44.234000
H 3.631000 45.555281 43.303000
H 3.772000 46.202281 44.664000
O 16.336000 52.617281 41.468000
H 15.552000 53.034281 41.110000
H 16.795000 52.272281 40.703000
O 2.484000 52.786281 52.317000
H 1.949000 53.565281 52.471000
H 3.044000 53.021281 51.577000
O 6.631000 43.942281 37.435000
H 7.421000 44.353281 37.084000
H 6.946000 43.150281 37.870000
O 41.362000 1.360719 40.425000
H 41.777000 0.591719 40.817000
H 40.480000 1.067719 40.198000
O 1.828000 44.163281 51.446000
H 2.365000 44.087281 50.657000
H 2.340000 44.721281 52.032000
O 3.498000 45.933281 41.496000
H 3.939000 46.508281 40.871000
H 3.875000 45.068281 41.335000
O 15.607000 45.740281 44.110000
H 15.298000 46.109281 43.283000
H 16.490000 46.096281 44.217000
O 9.885000 46.947281 49.347000
H 9.166000 46.316281 49.379000
H 10.621000 46.493281 49.759000
O 42.911000 1.063719 47.774000
H 42.916000 1.119719 48.730000
H 43.624000 1.638719 47.496000
O 38.957000 2.717719 48.432000
H 39.687000 2.164719 48.154000
H 38.874000 2.551719 49.371000
O 11.169000 46.998281 42.337000
H 11.458000 46.174281 41.944000
H 11.259000 46.859281 43.280000
O 9.237000 48.862281 41.947000
H 10.077000 48.403281 41.950000
H 8.888000 48.719281 41.067000
O 2.462000 48.403281 38.274000
H 2.748000 49.021281 37.601000
H 3.090000 48.517281 38.987000
O 13.136000 49.203281 50.418000
H 13.480000 48.441281 50.884000
H 13.816000 49.422281 49.781000
O 33.433000 2.421719 47.266000
H 33.234000 1.530719 46.980000
H 34.277000 2.621719 46.860000
O 44.678000 0.557719 41.078000
H 44.469000 1.222719 41.734000
H 44.990000 1.056719 40.323000
O 12.046000 52.207281 36.967000
H 12.872000 51.919281 37.357000
H 11.370000 51.774281 37.489000
O 17.075000 44.452281 40.003000
H 17.542000 44.805281 39.245000
H 17.757000 44.305281 40.658000
O 28.379000 45.251281 38.375000
H 29.191000 45.749281 38.278000
H 27.923000 45.371281 37.542000
O 16.404000 47.770281 52.206000
H 17.060000 48.064281 51.574000
H 16.700000 48.127281 53.043000
O 8.819000 44.882281 36.286000
H 8.400000 45.325281 35.548000
H 9.648000 44.559281 35.933000
O 10.400000 49.688281 49.391000
H 11.279000 49.575281 49.754000
H 10.044000 48.801281 49.346000
O 16.667000 43.521281 45.449000
H 15.906000 43.358281 46.006000
H 16.361000 44.162281 44.807000
O 6.695000 52.260281 42.264000
H 5.833000 52.481281 42.616000
H 7.312000 52.717281 42.835000
O 7.351000 47.557281 43.683000
H 7.356000 46.699281 43.259000
H 8.077000 48.030281 43.277000
O 4.716000 43.212281 35.667000
H 3.960000 43.558281 36.141000
H 5.471000 43.475281 36.194000
O 15.498000 46.741281 41.470000
H 15.901000 45.986281 41.042000
H 15.959000 47.497281 41.108000
O 12.120000 45.776281 50.295000
H 12.745000 46.091281 50.948000
H 12.645000 45.644281 49.505000
O 11.419000 50.110281 62.599000
H 11.915000 50.914281 62.440000
H 11.689000 49.519281 61.896000
O 3.572000 47.863281 45.400000
H 2.971000 47.478281 46.038000
H 4.388000 47.989281 45.885000
O 10.496000 51.107281 38.946000
H 10.881000 51.505281 39.727000
H 9.832000 51.734281 38.659000
O 13.247000 49.438281 39.117000
H 12.893000 50.133281 39.672000
H 12.572000 48.760281 39.121000
O 11.836000 52.223281 41.169000
H 11.571000 52.236281 42.089000
H 12.691000 52.651281 41.160000
O 14.984000 49.578281 44.086000
H 15.712000 50.065281 43.699000
H 14.474000 49.273281 43.335000
O 18.275000 48.385281 42.018000
H 19.022000 48.617281 42.569000
H 17.711000 49.158281 42.039000
O 11.803000 52.562281 59.388000
H 10.909000 52.864281 59.227000
H 11.932000 52.682281 60.329000
O 12.228000 44.248281 37.680000
H 13.130000 43.983281 37.859000
H 12.310000 45.032281 37.137000
O 10.454000 30.615281 44.566000
H 9.804000 31.311281 44.471000
H 11.177000 30.883281 43.998000
O 9.789000 47.360281 46.458000
H 10.697000 47.442281 46.168000
H 9.845000 47.302281 47.411000
O 1.925000 53.032281 46.376000
H 2.445000 52.788281 45.610000
H 1.022000 52.839281 46.124000
O 12.095000 47.460281 44.885000
H 12.831000 46.853281 44.969000
H 12.503000 48.308281 44.706000
O 5.813000 49.295281 42.175000
H 6.330000 48.652281 42.659000
H 6.207000 50.138281 42.400000
O 12.858000 52.995281 64.573000
H 13.476000 53.725281 64.613000
H 12.599000 52.850281 65.483000
O 28.868000 46.898281 44.845000
H 29.549000 47.452281 44.463000
H 29.056000 46.898281 45.783000
O 16.260000 51.518281 50.360000
H 15.667000 50.999281 49.816000
H 16.662000 52.139281 49.753000
O 9.046000 50.013281 51.866000
H 9.480000 49.821281 51.035000
H 8.309000 49.403281 51.899000
O 4.304000 39.881281 53.004000
H 3.863000 40.565281 53.508000
H 4.444000 40.271281 52.141000
O 39.082000 0.203719 43.978000
H 40.021000 0.066719 43.846000
H 38.904000 -0.173281 44.840000
O 13.416000 45.566281 47.830000
H 14.081000 46.247281 47.722000
H 13.155000 45.342281 46.937000
O 6.674000 49.145281 38.534000
H 6.520000 48.608281 37.756000
H 7.578000 48.953281 38.783000
O 29.208000 45.955281 47.129000
H 29.657000 45.323281 46.567000
H 28.958000 45.452281 47.903000
O 31.526000 1.616719 50.996000
H 31.277000 0.744719 50.693000
H 30.707000 2.007719 51.302000
O 2.517000 28.935281 49.660000
H 2.885000 28.052281 49.618000
H 1.595000 28.821281 49.430000
O 15.791000 28.034281 56.458000
H 16.617000 28.412281 56.758000
H 15.932000 27.855281 55.528000
O 8.877000 51.171281 64.018000
H 8.271000 50.433281 64.075000
H 9.734000 50.768281 63.883000
O 24.112000 50.725281 35.388000
H 23.275000 50.270281 35.484000
H 24.252000 50.773281 34.442000
O 7.906000 50.155281 47.636000
H 8.790000 50.157281 48.004000
H 7.330000 50.257281 48.394000
O 5.438000 27.093281 51.192000
H 4.548000 26.987281 50.854000
H 5.318000 27.370281 52.100000
O 15.510000 48.627281 63.965000
H 14.980000 48.641281 64.762000
H 15.173000 47.884281 63.465000
O 15.676000 51.297281 55.875000
H 15.013000 50.883281 56.428000
H 15.624000 50.826281 55.044000
O 3.905000 50.585281 37.298000
H 4.646000 50.707281 37.891000
H 3.493000 51.448281 37.248000
O 28.896000 50.497281 45.161000
H 29.618000 50.036281 44.734000
H 28.757000 50.019281 45.979000
O 3.507000 48.708281 50.816000
H 3.772000 47.972281 50.264000
H 4.302000 48.948281 51.293000
O 10.185000 47.886281 54.510000
H 9.872000 47.913281 53.605000
H 9.589000 47.281281 54.951000
O 10.990000 44.122281 56.836000
H 10.288000 44.672281 56.489000
H 10.725000 43.228281 56.620000
O 3.514000 52.115281 44.496000
H 3.679000 52.553281 43.661000
H 3.293000 51.215281 44.255000
O 29.455000 53.090281 45.492000
H 29.182000 52.271281 45.079000
H 29.359000 53.749281 44.805000
O 59.269000 1.724719 58.606000
H 60.023000 1.339719 59.053000
H 58.788000 2.179719 59.297000
O 14.604000 50.255281 48.402000
H 13.827000 50.656281 48.014000
H 14.892000 49.614281 47.753000
O 7.533000 45.865281 39.700000
H 8.383000 45.464281 39.521000
H 7.164000 46.043281 38.835000
O 17.599000 45.822281 49.165000
H 17.635000 44.938281 48.801000
H 17.378000 45.693281 50.088000
O 9.778000 42.497281 46.039000
H 10.056000 42.183281 46.899000
H 9.066000 43.110281 46.225000
O 4.238000 51.981281 62.925000
H 3.958000 52.475281 63.696000
H 3.462000 51.487281 62.661000
O 0.513000 32.038281 58.035000
H -0.419000 31.986281 58.248000
H 0.626000 31.429281 57.305000
O 13.672000 51.897281 44.984000
H 13.314000 51.638281 45.833000
H 14.086000 51.103281 44.646000
O 4.657000 48.143281 40.024000
H 4.805000 48.487281 40.905000
H 5.457000 48.358281 39.544000
O 9.428000 48.694281 38.927000
H 9.793000 49.575281 39.013000
H 10.192000 48.117281 38.925000
O 18.307000 49.632281 35.065000
H 17.411000 49.751281 34.751000
H 18.212000 49.138281 35.880000
O 13.483000 48.583281 42.128000
H 12.661000 48.096281 42.191000
H 14.134000 47.925281 41.886000
O 24.086000 45.043281 47.266000
H 23.697000 44.340281 46.746000
H 24.348000 44.620281 48.084000
O 8.089000 28.325281 49.832000
H 7.512000 27.823281 50.408000
H 8.360000 27.699281 49.160000
O 10.419000 27.589281 40.711000
H 11.325000 27.876281 40.824000
H 10.489000 26.669281 40.457000
O 4.308000 31.096281 49.747000
H 3.686000 30.369281 49.701000
H 5.055000 30.806281 49.225000
O 13.187000 44.897281 45.289000
H 12.681000 44.384281 44.660000
H 14.029000 45.044281 44.857000
O 17.848000 49.308281 50.443000
H 17.369000 50.131281 50.349000
H 17.959000 48.991281 49.547000
O 7.046000 30.999281 53.166000
H 6.697000 31.537281 52.455000
H 7.806000 30.559281 52.785000
O 1.665000 47.156281 47.169000
H 1.847000 47.877281 47.772000
H 0.719000 47.026281 47.229000
O 26.532000 50.994281 59.534000
H 27.473000 51.147281 59.451000
H 26.127000 51.737281 59.087000
O 15.175000 48.534281 46.529000
H 15.123000 48.963281 45.675000
H 16.088000 48.257281 46.603000
O 37.048000 1.473719 36.123000
H 37.389000 1.989719 36.853000
H 37.817000 1.034719 35.760000
O 5.131000 52.962281 47.108000
H 5.167000 53.865281 46.791000
H 4.376000 52.581281 46.661000
O 3.660000 45.711281 53.171000
H 4.338000 45.210281 53.623000
H 3.651000 46.558281 53.616000
O 17.199000 50.648281 43.009000
H 17.437000 51.201281 43.752000
H 16.792000 51.248281 42.384000
O 12.471000 52.620281 61.951000
H 13.340000 52.470281 61.578000
H 12.630000 52.747281 62.886000
O 28.727000 49.036281 41.381000
H 27.913000 49.346281 41.777000
H 28.644000 48.083281 41.374000
O 17.103000 45.157281 51.851000
H 16.488000 44.422281 51.849000
H 16.616000 45.875281 52.254000
O 17.703000 52.305281 47.973000
H 18.600000 52.093281 47.714000
H 17.587000 53.218281 47.712000
O 10.147000 50.085281 44.418000
H 9.911000 49.501281 43.697000
H 9.815000 49.646281 45.201000
O 39.346000 0.197719 35.468000
H 39.368000 -0.720281 35.197000
H 40.125000 0.583719 35.068000
O 0.221000 51.018281 37.000000
H 0.611000 50.365281 36.419000
H 0.190000 50.590281 37.856000
O 16.055000 41.852281 49.241000
H 16.987000 41.640281 49.195000
H 15.929000 42.188281 50.128000
O 4.800000 42.872281 39.837000
H 5.132000 43.100281 40.706000
H 5.421000 43.275281 39.230000
O 4.850000 53.110281 49.746000
H 5.377000 52.969281 48.960000
H 4.913000 54.051281 49.912000
O 21.868000 46.681281 47.630000
H 21.766000 46.482281 48.561000
H 22.564000 46.095281 47.334000
O 12.110000 43.091281 43.177000
H 12.768000 43.147281 42.484000
H 12.547000 42.616281 43.885000
O 4.143000 29.026281 42.505000
H 4.090000 28.113281 42.788000
H 5.065000 29.258281 42.613000
O 15.904000 49.221281 40.402000
H 16.476000 49.732281 39.829000
H 15.053000 49.654281 40.339000
O 8.993000 53.140281 38.156000
H 8.151000 52.908281 38.547000
H 8.790000 53.320281 37.238000
O 18.545000 39.576281 42.866000
H 18.145000 39.627281 41.998000
H 17.911000 39.994281 43.448000
O 28.821000 29.935281 41.000000
H 28.550000 30.093281 41.905000
H 28.047000 29.562281 40.580000
O 47.819000 1.199719 37.853000
H 46.911000 1.307719 38.137000
H 48.033000 2.022719 37.414000
O 8.832000 50.563281 60.966000
H 9.064000 49.979281 60.244000
H 9.632000 50.629281 61.488000
O 15.262000 50.435281 53.570000
H 14.349000 50.558281 53.309000
H 15.656000 49.952281 52.844000
O 6.936000 28.874281 62.275000
H 7.183000 29.331281 61.471000
H 7.769000 28.668281 62.700000
O 40.179000 0.790719 59.131000
H 39.302000 0.610719 59.471000
H 40.396000 1.657719 59.474000
O 14.018000 51.019281 59.121000
H 13.833000 50.549281 58.308000
H 13.300000 51.647281 59.204000
O 30.941000 1.098719 39.076000
H 31.063000 1.951719 38.659000
H 30.135000 0.755719 38.691000
O 8.733000 27.095281 55.846000
H 9.589000 27.349281 55.500000
H 8.589000 27.684281 56.586000
O 0.075000 52.231281 54.662000
H 0.412000 52.016281 55.532000
H 0.654000 52.924281 54.345000
O 21.064000 28.019281 58.224000
H 20.651000 27.287281 57.766000
H 21.907000 27.674281 58.518000
O 7.585000 46.981281 58.724000
H 7.704000 46.037281 58.830000
H 6.811000 47.185281 59.248000
O 48.224000 0.198719 56.638000
H 48.078000 0.067719 55.701000
H 47.487000 -0.242281 57.060000
O 6.463000 52.325281 54.829000
H 5.526000 52.175281 54.707000
H 6.856000 51.454281 54.773000
O 24.272000 42.419281 55.740000
H 24.379000 43.227281 55.238000
H 23.377000 42.137281 55.553000
O 40.164000 0.912719 62.125000
H 39.389000 0.354719 62.052000
H 40.837000 0.453719 61.621000
O 7.275000 49.679281 54.618000
H 8.224000 49.553281 54.609000
H 6.984000 49.256281 55.426000
O 3.386000 48.121281 64.572000
H 4.025000 48.828281 64.657000
H 2.586000 48.473281 64.963000
O 20.793000 28.198281 62.531000
H 20.153000 28.834281 62.210000
H 21.622000 28.676281 62.540000
O 41.503000 1.704719 64.224000
H 40.975000 1.709719 63.425000
H 42.122000 0.985719 64.098000
O 16.521000 48.094281 58.632000
H 17.138000 48.794281 58.846000
H 16.244000 47.750281 59.482000
O 3.543000 52.070281 58.641000
H 4.306000 51.497281 58.563000
H 3.857000 52.927281 58.353000
O 6.024000 46.299281 51.946000
H 6.215000 47.225281 52.100000
H 5.163000 46.163281 52.342000
O 5.930000 29.456281 36.813000
H 6.285000 28.568281 36.853000
H 5.436000 29.480281 35.993000
O 29.351000 42.734281 38.280000
H 28.963000 43.582281 38.062000
H 29.826000 42.477281 37.489000
O 11.862000 46.569281 57.798000
H 11.093000 47.108281 57.613000
H 11.573000 45.672281 57.626000
O 4.918000 47.011281 60.064000
H 5.116000 46.927281 60.997000
H 4.258000 46.338281 59.897000
O 8.901000 45.739281 55.949000
H 8.427000 45.728281 56.780000
H 8.385000 45.177281 55.371000
O 5.619000 47.616281 62.880000
H 5.687000 48.384281 62.312000
H 4.730000 47.656281 63.232000
O 6.800000 47.372281 36.445000
H 6.037000 47.754281 36.012000
H 7.549000 47.814281 36.046000
O 17.409000 27.847281 62.450000
H 17.882000 28.679281 62.435000
H 17.710000 27.386281 61.667000
O 42.801000 1.402719 38.032000
H 42.644000 0.615719 37.512000
H 42.136000 1.373719 38.720000
O 44.533000 2.481719 58.745000
H 44.462000 2.017719 59.579000
H 44.149000 1.883719 58.104000
O 13.227000 47.404281 54.295000
H 13.579000 47.141281 55.145000
H 12.277000 47.365281 54.406000
O 4.009000 48.267281 54.315000
H 3.880000 48.297281 55.263000
H 3.878000 49.170281 54.026000
O 36.345000 0.952719 62.050000
H 35.821000 0.281719 62.488000
H 36.754000 0.495719 61.315000
O 46.254000 0.053719 61.533000
H 46.100000 -0.815281 61.903000
H 46.319000 -0.095281 60.590000
O 2.139000 45.794281 64.033000
H 2.692000 46.486281 64.393000
H 1.566000 46.243281 63.412000
O 10.919000 52.600281 55.341000
H 10.461000 53.325281 55.766000
H 11.715000 52.995281 54.985000
O 36.448000 3.353719 63.425000
H 36.560000 2.535719 62.942000
H 36.930000 4.002719 62.913000
O 39.989000 1.194719 56.554000
H 39.674000 2.074719 56.347000
H 40.105000 1.197719 57.504000
O 5.706000 39.954281 63.155000
H 5.280000 39.270281 62.639000
H 5.017000 40.600281 63.312000
O 10.197000 26.382281 60.461000
H 10.828000 26.927281 59.990000
H 9.977000 26.890281 61.242000
O 6.019000 43.754281 63.231000
H 5.593000 43.432281 64.026000
H 6.359000 42.968281 62.805000
O 19.957000 48.062281 53.674000
H 20.561000 47.588281 54.247000
H 19.087000 47.795281 53.970000
O 5.980000 50.263281 61.654000
H 6.743000 50.804281 61.453000
H 5.345000 50.874281 62.029000
O 13.578000 49.724281 56.592000
H 13.775000 48.822281 56.339000
H 12.683000 49.869281 56.287000
O 42.929000 0.385719 50.451000
H 43.613000 -0.103281 50.907000
H 42.111000 0.063719 50.829000
O 33.945000 2.677719 61.566000
H 34.055000 3.628719 61.565000
H 34.826000 2.334719 61.715000
O 30.111000 46.857281 61.293000
H 30.139000 46.454281 60.425000
H 29.206000 46.741281 61.582000
O 10.018000 48.749281 58.624000
H 9.253000 48.222281 58.393000
H 10.219000 49.243281 57.828000
O 37.414000 2.190719 55.389000
H 37.589000 1.291719 55.110000
H 38.266000 2.624719 55.346000
O 13.448000 29.102281 55.563000
H 12.738000 29.270281 56.182000
H 14.050000 28.530281 56.039000
O 9.422000 46.225281 52.448000
H 9.000000 45.949281 51.634000
H 10.068000 45.542281 52.627000
O 20.876000 46.810281 56.995000
H 21.097000 45.897281 56.814000
H 19.925000 46.852281 56.896000
O 7.266000 52.644281 60.214000
H 7.984000 52.093281 60.527000
H 6.947000 52.201281 59.428000
O 21.705000 44.356281 57.034000
H 22.517000 44.479281 57.526000
H 21.310000 43.571281 57.414000
O 11.298000 29.693281 57.267000
H 10.361000 29.509281 57.204000
H 11.543000 29.391281 58.142000
O 9.290000 48.812281 36.284000
H 9.721000 48.775281 37.138000
H 10.002000 48.716281 35.652000
O 1.108000 48.071281 51.757000
H 0.981000 49.018281 51.810000
H 2.016000 47.965281 51.475000
O 9.875000 34.669281 58.325000
H 10.560000 34.081281 58.007000
H 10.071000 34.787281 59.254000
O 10.901000 49.875281 56.226000
H 10.719000 50.733281 55.845000
H 10.715000 49.255281 55.521000
O 31.432000 1.614719 35.662000
H 31.147000 1.104719 34.904000
H 32.191000 1.138719 36.000000
O 5.332000 49.884281 35.360000
H 5.329000 50.523281 34.647000
H 4.667000 50.203281 35.970000
O 13.763000 52.762281 54.593000
H 13.998000 52.760281 53.666000
H 14.502000 52.339281 55.030000
O 26.115000 31.953281 61.972000
H 25.862000 32.310281 61.121000
H 25.845000 31.035281 61.938000
O 17.610000 48.198281 37.313000
H 17.445000 47.358281 36.886000
H 17.955000 47.965281 38.175000
O 2.806000 45.731281 56.225000
H 2.340000 46.228281 55.552000
H 2.157000 45.113281 56.560000
O 10.651000 27.772281 52.345000
H 10.512000 27.495281 53.250000
H 10.020000 28.479281 52.211000
O 17.447000 48.322281 54.918000
H 17.592000 47.572281 55.495000
H 17.267000 49.051281 55.512000
O 15.138000 50.571281 62.021000
H 15.368000 49.918281 62.683000
H 15.189000 50.098281 61.191000
O 15.903000 46.805281 60.790000
H 15.261000 46.781281 61.500000
H 16.719000 46.511281 61.195000
O 2.281000 27.774281 57.528000
H 2.306000 26.864281 57.233000
H 1.678000 28.206281 56.923000
O 18.722000 37.833281 64.607000
H 19.544000 37.944281 64.129000
H 18.582000 38.674281 65.042000
O 22.482000 27.251281 44.917000
H 21.533000 27.132281 44.959000
H 22.695000 27.761281 45.699000
O 16.374000 29.770281 45.160000
H 17.029000 30.026281 44.512000
H 15.641000 29.436281 44.643000
O 25.656000 35.456281 48.039000
H 25.785000 34.541281 47.789000
H 26.506000 35.868281 47.887000
O 23.614000 36.298281 43.647000
H 23.622000 37.145281 44.094000
H 23.974000 36.482281 42.779000
O 28.655000 33.774281 44.682000
H 29.168000 33.191281 44.122000
H 29.175000 34.575281 44.735000
O 27.374000 35.972281 41.338000
H 26.937000 35.147281 41.548000
H 27.697000 36.294281 42.179000
O 26.573000 37.228281 54.843000
H 26.127000 36.602281 54.272000
H 27.421000 36.824281 55.027000
O 20.790000 44.133281 43.731000
H 20.378000 44.872281 44.178000
H 20.849000 43.451281 44.400000
O 25.475000 32.793281 47.579000
H 25.534000 32.902281 46.630000
H 26.198000 32.205281 47.799000
O 23.406000 43.352281 37.200000
H 22.613000 43.827281 36.951000
H 23.900000 43.973281 37.735000
O 2.181000 35.570281 58.116000
H 1.642000 34.981281 57.588000
H 2.922000 35.032281 58.395000
O 25.469000 39.676281 40.619000
H 25.833000 40.448281 41.052000
H 24.816000 40.027281 40.012000
O 17.665000 41.028281 45.629000
H 17.029000 40.386281 45.313000
H 17.306000 41.874281 45.358000
O 23.355000 48.883281 47.432000
H 22.789000 49.382281 48.022000
H 22.959000 48.012281 47.399000
O 23.573000 41.047281 39.101000
H 23.444000 41.936281 38.770000
H 22.872000 40.925281 39.741000
O 22.654000 32.773281 47.967000
H 23.606000 32.679281 47.945000
H 22.351000 32.336281 47.171000
O 21.841000 45.376281 36.840000
H 22.193000 45.650281 35.993000
H 22.353000 45.866281 37.483000
O 23.649000 38.929281 53.365000
H 23.355000 38.628281 52.504000
H 24.175000 39.707281 53.180000
O 19.563000 40.753281 39.127000
H 19.226000 41.052281 38.282000
H 18.782000 40.619281 39.663000
O 0.753000 48.327281 35.580000
H 0.221000 47.552281 35.397000
H 0.479000 48.966281 34.922000
O 20.386000 37.731281 50.546000
H 21.341000 37.798281 50.533000
H 20.135000 38.041281 51.416000
O 48.584000 2.602719 57.738000
H 48.504000 1.688719 57.465000
H 47.714000 2.973719 57.592000
O 21.195000 34.501281 37.787000
H 21.313000 33.554281 37.858000
H 20.283000 34.648281 38.038000
O 0.799000 27.116281 43.201000
H 0.411000 26.298281 43.510000
H 0.435000 27.239281 42.324000
O 22.459000 28.713281 47.114000
H 21.630000 28.284281 47.327000
H 22.206000 29.579281 46.794000
O -0.051000 33.996281 53.837000
H 0.406000 34.563281 53.216000
H 0.159000 33.107281 53.549000
O 26.740000 30.464281 48.713000
H 26.729000 30.430281 49.670000
H 25.900000 30.088281 48.450000
O 3.404000 31.106281 35.694000
H 3.832000 30.780281 34.903000
H 2.535000 30.704281 35.680000
O 20.685000 36.527281 45.122000
H 21.404000 36.262281 45.696000
H 19.915000 36.532281 45.690000
O 23.225000 48.957281 52.609000
H 23.589000 48.269281 52.052000
H 22.958000 48.503281 53.409000
O 21.644000 29.530281 41.437000
H 21.232000 29.342281 40.594000
H 20.988000 29.277281 42.087000
O 48.823000 2.866719 40.886000
H 49.367000 3.392719 41.472000
H 48.108000 2.552719 41.439000
O 24.967000 37.266281 41.454000
H 25.842000 36.886281 41.372000
H 25.040000 38.126281 41.040000
O 22.006000 44.574281 41.415000
H 21.589000 44.397281 42.258000
H 21.524000 44.033281 40.790000
O 24.154000 32.672281 39.929000
H 23.897000 33.415281 40.474000
H 23.397000 32.517281 39.363000
O 26.509000 40.482281 49.097000
H 26.911000 40.718281 48.261000
H 25.583000 40.699281 48.988000
O 1.118000 42.360281 40.245000
H 0.496000 42.441281 39.522000
H 1.676000 43.135281 40.170000
O 13.337000 30.961281 51.377000
H 13.498000 31.817281 51.774000
H 13.362000 30.347281 52.110000
O 24.907000 39.917281 64.988000
H 24.248000 40.035281 65.672000
H 24.428000 39.524281 64.258000
O 24.852000 44.181281 49.639000
H 25.694000 43.740281 49.749000
H 24.861000 44.881281 50.292000
O 28.323000 35.776281 48.295000
H 28.300000 34.883281 47.949000
H 28.384000 35.664281 49.243000
O 24.162000 30.631281 44.166000
H 24.437000 30.624281 43.249000
H 24.804000 31.189281 44.605000
O 20.405000 29.669281 38.945000
H 20.617000 29.766281 38.017000
H 20.142000 28.754281 39.038000
O 53.614000 0.611719 52.914000
H 53.419000 -0.319281 53.024000
H 54.368000 0.767719 53.482000
O 24.152000 40.857281 43.998000
H 23.567000 40.909281 43.242000
H 25.027000 40.765281 43.619000
O 27.113000 39.825281 44.527000
H 27.443000 38.932281 44.424000
H 27.352000 40.265281 43.712000
O 0.492000 27.350281 45.868000
H 1.199000 26.860281 46.287000
H 0.597000 27.172281 44.933000
O 52.367000 1.528719 41.744000
H 52.559000 1.367719 40.820000
H 52.787000 2.367719 41.934000
O 21.528000 32.063281 64.666000
H 21.991000 31.599281 63.968000
H 20.739000 32.403281 64.245000
O 0.199000 33.211281 42.065000
H -0.746000 33.110281 41.948000
H 0.583000 32.765281 41.310000
O 4.569000 40.579281 42.607000
H 4.804000 41.493281 42.447000
H 4.746000 40.137281 41.777000
O 20.475000 36.168281 40.620000
H 19.919000 36.321281 41.384000
H 21.167000 35.589281 40.938000
O 29.176000 40.354281 42.411000
H 29.240000 39.956281 41.543000
H 29.474000 41.254281 42.286000
O 23.114000 28.595281 35.406000
H 23.569000 28.560281 34.564000
H 23.815000 28.597281 36.058000
O 24.295000 38.232281 45.406000
H 24.667000 38.925281 44.861000
H 23.508000 38.622281 45.786000
O 17.546000 28.084281 46.714000
H 17.784000 28.569281 47.504000
H 17.195000 28.748281 46.121000
O 36.037000 3.518719 43.534000
H 36.769000 3.113719 43.069000
H 35.256000 3.130719 43.138000
O 59.483000 2.998719 47.973000
H 59.908000 3.313719 47.175000
H 58.695000 3.535719 48.053000
O 21.635000 38.407281 39.778000
H 21.223000 37.607281 40.103000
H 20.905000 38.949281 39.480000
O 24.649000 30.261281 41.473000
H 24.511000 31.092281 41.018000
H 23.790000 29.839281 41.470000
O 29.863000 52.543281 49.909000
H 30.694000 52.693281 49.458000
H 29.196000 52.788281 49.268000
O 0.855000 38.261281 55.841000
H 0.266000 37.556281 55.571000
H 1.733000 37.891281 55.743000
O 29.023000 32.233281 37.852000
H 28.275000 32.161281 38.446000
H 28.884000 33.060281 37.390000
O 22.310000 32.798281 50.773000
H 22.192000 33.692281 51.096000
H 22.527000 32.905281 49.847000
O 21.776000 46.392281 50.406000
H 21.160000 45.740281 50.741000
H 21.354000 47.233281 50.583000
O 27.313000 38.540281 37.675000
H 27.386000 39.245281 38.318000
H 26.409000 38.236281 37.753000
O 22.150000 31.289281 45.863000
H 21.362000 31.448281 45.344000
H 22.871000 31.387281 45.242000
O 29.957000 40.625281 49.144000
H 29.879000 41.313281 48.483000
H 29.608000 39.842281 48.718000
O 22.310000 39.439281 46.763000
H 21.610000 39.138281 47.342000
H 21.858000 39.910281 46.064000
O 20.803000 35.124281 51.890000
H 19.975000 34.887281 51.472000
H 20.889000 36.064281 51.734000
O 0.960000 28.683281 52.099000
H 1.712000 29.021281 51.612000
H 0.456000 28.192281 51.450000
O 19.986000 27.896281 48.245000
H 19.961000 26.944281 48.342000
H 19.504000 28.227281 49.003000
O 27.399000 37.030281 43.830000
H 26.633000 36.495281 44.041000
H 28.121000 36.611281 44.298000
O 27.589000 32.745281 41.677000
H 27.245000 32.358281 40.872000
H 27.568000 32.031281 42.314000
O 19.594000 34.751281 54.256000
H 20.059000 34.630281 53.428000
H 19.473000 33.864281 54.595000
O 24.943000 36.928281 50.428000
H 25.558000 37.661281 50.406000
H 25.257000 36.330281 49.749000
O 29.317000 30.307281 48.098000
H 28.512000 30.810281 48.224000
H 29.440000 30.286281 47.149000
O 11.676000 27.422281 37.402000
H 11.807000 26.505281 37.645000
H 11.903000 27.459281 36.473000
O -0.218000 36.319281 44.782000
H -0.160000 37.252281 44.575000
H 0.577000 36.134281 45.281000
O 3.143000 41.516281 54.832000
H 2.230000 41.441281 54.555000
H 3.116000 41.392281 55.781000
O 23.716000 31.440281 52.708000
H 24.025000 32.062281 53.367000
H 23.337000 31.987281 52.020000
O 9.903000 35.685281 35.362000
H 9.596000 35.424281 34.493000
H 10.671000 35.136281 35.520000
O 0.570000 38.897281 44.362000
H 0.165000 39.614281 43.875000
H 1.463000 38.849281 44.021000
O 20.848000 39.144281 44.279000
H 20.926000 38.289281 44.703000
H 19.907000 39.264281 44.153000
O 17.338000 28.578281 49.736000
H 16.518000 29.063281 49.639000
H 17.915000 29.174281 50.213000
O 19.026000 29.310281 54.379000
H 19.195000 28.429281 54.044000
H 19.847000 29.781281 54.239000
O 25.495000 35.450281 45.228000
H 24.641000 35.569281 44.811000
H 25.427000 35.926281 46.055000
O 18.605000 34.822281 38.865000
H 19.035000 35.339281 39.546000
H 18.652000 33.920281 39.182000
O 20.328000 51.627281 47.356000
H 20.648000 51.400281 46.483000
H 20.904000 51.153281 47.954000
O 25.442000 48.085281 40.458000
H 24.884000 48.827281 40.223000
H 25.754000 48.291281 41.339000
O 26.923000 28.093281 51.266000
H 27.081000 29.030281 51.144000
H 26.593000 27.792281 50.420000
O 19.680000 32.030281 44.852000
H 19.977000 32.271281 43.975000
H 19.267000 32.823281 45.192000
O 18.624000 30.348281 51.352000
H 19.224000 31.061281 51.573000
H 19.000000 29.578281 51.779000
O 26.354000 29.234281 39.695000
H 25.771000 29.242281 40.454000
H 25.813000 28.897281 38.981000
O 24.353000 44.778281 53.938000
H 25.127000 44.530281 53.432000
H 24.115000 45.643281 53.605000
O 26.236000 26.889281 48.303000
H 25.874000 27.774281 48.261000
H 25.770000 26.406281 47.621000
O 27.435000 39.029281 52.830000
H 27.630000 39.824281 53.327000
H 27.168000 38.391281 53.492000
O 19.112000 32.220281 39.388000
H 18.281000 31.814281 39.633000
H 19.668000 31.487281 39.124000
O 22.708000 35.633281 46.937000
H 22.845000 34.835281 47.448000
H 23.516000 36.133281 47.052000
O 29.689000 39.056281 40.022000
H 30.631000 39.183281 40.137000
H 29.597000 38.127281 39.810000
O 5.175000 33.360281 38.070000
H 5.145000 33.365281 37.113000
H 5.167000 32.433281 38.306000
O 4.721000 40.581281 50.429000
H 5.365000 41.146281 50.001000
H 3.939000 40.651281 49.881000
O 17.471000 34.783281 42.263000
H 16.971000 35.076281 41.501000
H 18.112000 35.478281 42.410000
O 29.218000 44.756281 49.861000
H 30.108000 44.568281 50.157000
H 28.904000 45.434281 50.459000
O 2.714000 33.734281 39.204000
H 2.519000 32.882281 39.593000
H 3.615000 33.654281 38.890000
O 21.408000 44.801281 54.338000
H 21.285000 44.375281 55.186000
H 22.229000 44.439281 54.004000
O 3.997000 31.315281 45.126000
H 4.204000 31.516281 44.213000
H 4.475000 30.506281 45.308000
O 26.783000 41.122281 54.775000
H 27.462000 40.734281 55.328000
H 25.962000 40.783281 55.130000
O 22.933000 39.991281 36.797000
H 23.086000 40.453281 37.621000
H 22.938000 39.064281 37.036000
O 20.185000 33.059281 42.212000
H 19.443000 33.657281 42.120000
H 19.981000 32.331281 41.625000
O 5.222000 39.484281 40.217000
H 5.540000 38.585281 40.308000
H 5.845000 39.900281 39.622000
O 28.925000 36.277281 55.329000
H 28.828000 36.023281 56.247000
H 29.211000 35.477281 54.888000
O 28.544000 34.707281 36.658000
H 29.071000 35.037281 35.930000
H 28.808000 35.242281 37.407000
O 25.505000 35.736281 52.890000
H 26.096000 35.002281 52.718000
H 25.260000 36.055281 52.021000
O 4.503000 37.525281 45.802000
H 4.172000 38.084281 45.098000
H 4.860000 38.137281 46.446000
O 56.322000 3.240719 41.801000
H 55.426000 3.517719 41.990000
H 56.276000 2.861719 40.924000
O 26.849000 41.907281 36.099000
H 26.997000 41.709281 37.024000
H 26.181000 41.280281 35.823000
O 24.133000 46.158281 42.544000
H 23.620000 45.467281 42.125000
H 24.744000 45.692281 43.114000
O 23.640000 40.273281 48.988000
H 23.249000 40.251281 48.115000
H 23.363000 41.112281 49.355000
O 22.768000 29.120281 51.401000
H 22.950000 28.270281 51.803000
H 23.270000 29.745281 51.924000
O 15.300000 35.073281 40.158000
H 15.361000 36.012281 40.336000
H 14.535000 34.987281 39.589000
O 0.644000 36.963281 35.805000
H 0.499000 37.819281 36.209000
H 1.169000 36.481281 36.444000
O 20.128000 27.849281 51.231000
H 20.944000 28.318281 51.058000
H 20.407000 26.988281 51.543000
O 26.781000 30.903281 51.391000
H 26.008000 31.241281 51.843000
H 27.336000 31.671281 51.257000
O 27.151000 42.776281 50.168000
H 26.979000 41.918281 49.779000
H 28.040000 42.993281 49.887000
O 28.905000 28.516281 36.285000
H 29.526000 29.241281 36.222000
H 29.372000 27.841281 36.778000
O 26.575000 32.000281 39.203000
H 25.706000 32.336281 39.426000
H 26.544000 31.075281 39.448000
O 25.047000 36.879281 38.202000
H 24.158000 37.075281 37.908000
H 24.967000 36.768281 39.149000
O 26.369000 43.166281 45.264000
H 25.935000 44.015281 45.348000
H 25.706000 42.595281 44.878000
O 25.858000 32.701281 45.043000
H 26.792000 32.507281 44.953000
H 25.798000 33.650281 44.930000
O 3.346000 35.250281 62.345000
H 2.442000 35.185281 62.035000
H 3.315000 34.930281 63.246000
O 22.832000 38.401281 50.671000
H 23.079000 39.092281 50.056000
H 23.540000 37.760281 50.608000
O 22.367000 40.024281 41.917000
H 21.908000 39.631281 42.659000
H 22.328000 39.359281 41.230000
O 28.823000 35.781281 51.056000
H 28.580000 36.705281 51.108000
H 29.756000 35.765281 51.272000
O 19.357000 28.104281 42.581000
H 19.533000 27.801281 43.472000
H 18.792000 28.868281 42.694000
O 47.788000 2.537719 50.348000
H 47.568000 2.341719 49.437000
H 48.089000 3.445719 50.332000
O 0.213000 38.540281 47.137000
H -0.477000 37.878281 47.177000
H 0.343000 38.695281 46.202000
O 57.572000 1.514719 43.276000
H 57.259000 2.266719 42.773000
H 56.909000 1.386719 43.954000
O 0.464000 39.295281 36.981000
H -0.063000 39.263281 37.779000
H 1.367000 39.203281 37.286000
O 27.212000 41.235281 46.762000
H 26.878000 41.966281 46.242000
H 27.156000 40.479281 46.177000
O 33.997000 2.369719 39.589000
H 34.657000 1.705719 39.392000
H 33.888000 2.850719 38.768000
O 0.283000 30.856281 35.790000
H 0.298000 31.417281 35.015000
H -0.173000 31.374281 36.453000
O 22.391000 34.488281 41.329000
H 22.691000 34.990281 42.087000
H 21.698000 33.924281 41.673000
O 23.844000 38.931281 62.719000
H 24.232000 39.745281 62.399000
H 24.473000 38.252281 62.473000
O 15.894000 36.140281 56.990000
H 16.065000 36.987281 56.577000
H 15.866000 35.519281 56.263000
O 23.863000 32.664281 36.088000
H 23.319000 32.825281 35.317000
H 24.448000 33.420281 36.132000
O 15.213000 31.136281 55.659000
H 15.724000 30.894281 54.887000
H 14.584000 30.423281 55.764000
O 2.253000 38.644281 64.089000
H 1.458000 38.150281 64.292000
H 2.772000 38.605281 64.892000
O 24.769000 42.026281 59.002000
H 24.419000 42.908281 58.877000
H 24.787000 41.647281 58.123000
O 22.664000 37.336281 37.564000
H 22.405000 36.416281 37.628000
H 22.261000 37.753281 38.325000
O 21.635000 48.660281 59.284000
H 21.504000 48.030281 58.576000
H 22.193000 49.338281 58.901000
O 26.190000 44.184281 52.295000
H 26.850000 44.124281 52.986000
H 26.543000 43.655281 51.580000
O 17.255000 36.603281 37.136000
H 17.701000 36.630281 36.289000
H 17.888000 36.193281 37.727000
O 25.052000 39.191281 56.094000
H 25.532000 38.482281 55.666000
H 24.188000 39.178281 55.682000
O 16.401000 38.573281 55.876000
H 17.099000 39.160281 56.168000
H 16.798000 38.057281 55.175000
O 19.048000 40.101281 57.229000
H 19.650000 39.947281 56.500000
H 18.976000 39.251281 57.663000
O 21.063000 39.381281 63.577000
H 20.765000 39.348281 62.668000
H 21.930000 38.974281 63.561000
O 58.436000 0.564719 63.271000
H 58.078000 -0.193281 62.809000
H 59.379000 0.519719 63.111000
O 4.117000 38.982281 57.707000
H 3.644000 38.761281 58.510000
H 4.862000 38.382281 57.695000
O 28.118000 33.086281 50.705000
H 28.280000 33.974281 51.025000
H 28.966000 32.794281 50.371000
O 3.571000 28.781281 39.864000
H 2.746000 28.296281 39.884000
H 3.855000 28.808281 40.778000
O 0.781000 34.644281 61.414000
H -0.078000 34.221281 61.418000
H 1.317000 34.093281 60.844000
O 18.409000 41.397281 60.684000
H 18.425000 40.455281 60.856000
H 19.117000 41.538281 60.056000
O 25.477000 28.190281 53.627000
H 25.964000 28.210281 52.803000
H 24.622000 27.831281 53.391000
O 26.548000 29.601281 59.358000
H 27.156000 29.369281 60.060000
H 26.605000 28.872281 58.741000
O 30.209000 43.943281 56.667000
H 29.415000 44.074281 56.150000
H 30.115000 43.062281 57.031000
O 25.107000 41.243281 61.636000
H 24.966000 41.379281 60.699000
H 24.723000 42.016281 62.051000
O 17.825000 37.006281 54.314000
H 18.450000 36.281281 54.340000
H 17.151000 36.720281 53.698000
O 0.571000 45.464281 58.996000
H 1.488000 45.308281 59.221000
H 0.482000 45.127281 58.105000
O 24.308000 46.535281 51.132000
H 23.392000 46.500281 50.859000
H 24.745000 47.039281 50.445000
O 22.603000 47.773281 61.822000
H 23.095000 48.545281 62.102000
H 22.278000 48.000281 60.951000
O 29.351000 39.359281 62.178000
H 28.938000 38.536281 62.439000
H 29.777000 39.160281 61.344000
O 21.361000 36.414281 56.000000
H 20.755000 35.714281 55.759000
H 20.985000 36.793281 56.795000
O 21.488000 30.976281 54.172000
H 21.695000 30.743281 55.077000
H 22.334000 31.197281 53.782000
O 27.821000 41.741281 61.842000
H 28.233000 40.903281 62.052000
H 26.882000 41.562281 61.874000
O 28.051000 30.745281 57.272000
H 27.586000 31.442281 56.811000
H 27.500000 30.548281 58.030000
O 22.474000 30.025281 56.619000
H 22.139000 29.295281 57.141000
H 22.426000 30.781281 57.205000
O 16.247000 33.778281 52.776000
H 16.916000 33.634281 52.108000
H 16.114000 34.726281 52.781000
O 28.917000 29.589281 60.877000
H 29.251000 29.530281 61.772000
H 29.374000 28.894281 60.404000
O 6.179000 37.230281 58.682000
H 6.083000 36.704281 59.476000
H 5.701000 36.742281 58.012000
O 27.633000 39.878281 59.371000
H 27.616000 40.555281 60.047000
H 27.506000 39.058281 59.848000
O 3.562000 44.252281 62.085000
H 3.056000 44.740281 62.735000
H 4.389000 44.054281 62.524000
O 27.130000 33.604281 53.599000
H 28.060000 33.644281 53.818000
H 26.704000 33.322281 54.408000
O 25.867000 34.691281 36.347000
H 26.780000 34.645281 36.629000
H 25.507000 35.442281 36.819000
O 24.830000 29.324281 61.923000
H 25.123000 28.961281 61.087000
H 24.829000 28.577281 62.522000
O 25.691000 35.707281 57.155000
H 26.522000 35.665281 57.629000
H 25.928000 36.020281 56.282000
O 50.851000 2.812719 56.653000
H 50.024000 2.743719 57.129000
H 50.595000 2.847719 55.731000
O 24.067000 33.745281 54.214000
H 24.570000 34.465281 53.835000
H 23.576000 34.146281 54.931000
O 22.920000 37.846281 60.136000
H 23.287000 38.241281 60.927000
H 23.450000 38.201281 59.422000
O 20.697000 37.546281 58.342000
H 20.188000 36.862281 58.778000
H 21.506000 37.604281 58.851000
O 20.626000 40.860281 35.845000
H 20.771000 40.526281 34.960000
H 21.309000 40.446281 36.373000
O 28.586000 36.335281 58.215000
H 29.139000 36.802281 58.842000
H 28.725000 35.409281 58.416000
O 29.106000 36.716281 63.673000
H 28.454000 37.326281 64.018000
H 29.816000 36.735281 64.315000
O 23.038000 35.332281 61.182000
H 22.885000 36.125281 60.668000
H 23.387000 35.649281 62.014000
O 0.559000 32.274281 63.477000
H -0.373000 32.432281 63.627000
H 0.701000 32.524281 62.564000
O 6.678000 33.086281 51.196000
H 6.814000 32.633281 50.364000
H 5.908000 33.635281 51.047000
O 26.772000 37.767281 60.841000
H 26.076000 37.769281 60.183000
H 27.028000 36.848281 60.916000
O 22.281000 35.186281 35.287000
H 21.701000 34.805281 34.627000
H 21.987000 34.804281 36.114000
O 23.116000 34.429281 56.711000
H 22.579000 35.174281 56.441000
H 23.877000 34.823281 57.137000
O 21.653000 38.991281 55.100000
H 22.344000 39.094281 54.446000
H 21.788000 38.113281 55.455000
O 19.568000 46.676281 59.554000
H 19.069000 47.491281 59.605000
H 19.281000 46.269281 58.737000
O 22.154000 41.229281 59.905000
H 23.026000 41.505281 59.623000
H 21.889000 41.889281 60.546000
O 13.147000 30.195281 38.408000
H 13.721000 30.865281 38.037000
H 12.262000 30.524281 38.252000
O 24.167000 36.324281 63.328000
H 23.698000 36.195281 64.152000
H 24.860000 35.663281 63.340000
O 22.418000 30.922281 62.443000
H 23.260000 30.639281 62.087000
H 22.082000 31.544281 61.797000
O 7.392000 40.114281 37.527000
H 7.674000 39.979281 36.622000
H 6.444000 40.235281 37.468000
O 4.241000 33.958281 58.462000
H 4.166000 33.284281 57.786000
H 5.052000 33.745281 58.924000
O 18.519000 42.252281 37.009000
H 17.749000 42.020281 36.491000
H 19.243000 41.798281 36.578000
O 31.659000 1.831719 60.117000
H 32.349000 1.881719 60.779000
H 31.424000 2.742719 59.946000
O 0.560000 42.096281 53.208000
H 0.991000 42.660281 52.566000
H 0.426000 41.267281 52.749000
O 27.199000 38.223281 50.236000
H 26.933000 39.067281 49.872000
H 27.321000 38.391281 51.170000
O 15.083000 33.568281 63.642000
H 15.230000 33.861281 64.541000
H 15.899000 33.133281 63.395000
O 3.759000 41.687281 60.364000
H 3.317000 41.993281 61.156000
H 3.259000 40.918281 60.092000
O 27.321000 34.241281 59.167000
H 27.064000 34.834281 59.872000
H 26.633000 33.576281 59.150000
O 7.712000 39.735281 59.565000
H 7.122000 40.475281 59.421000
H 7.249000 38.984281 59.195000
O 26.171000 31.013281 36.278000
H 26.650000 31.384281 37.020000
H 25.422000 31.597281 36.161000
O 23.581000 44.712281 58.935000
H 24.099000 45.450281 58.614000
H 22.929000 45.110281 59.513000
O 25.025000 38.707281 58.676000
H 25.815000 39.226281 58.831000
H 24.949000 38.664281 57.723000
O 15.261000 33.827281 55.304000
H 15.327000 32.961281 55.706000
H 15.867000 33.794281 54.564000
O 16.502000 31.669281 58.047000
H 16.678000 30.960281 58.666000
H 16.060000 31.242281 57.313000
O 28.198000 43.408281 54.462000
H 27.573000 42.684281 54.510000
H 28.981000 43.024281 54.067000
O 3.911000 28.115281 64.941000
H 4.467000 27.543281 64.413000
H 3.424000 28.634281 64.302000
O 25.440000 32.278281 59.153000
H 25.674000 31.352281 59.091000
H 24.610000 32.348281 58.681000
O 28.430000 46.309281 54.109000
H 28.492000 46.381281 53.157000
H 28.204000 45.393281 54.267000
O 27.298000 46.953281 61.873000
H 27.109000 47.624281 61.218000
H 26.816000 46.182281 61.574000
O 2.558000 39.148281 59.933000
H 3.018000 38.885281 60.730000
H 1.961000 38.422281 59.750000
O 2.450000 32.605281 60.093000
H 1.849000 32.184281 59.479000
H 3.037000 33.120281 59.540000
O 20.067000 39.175281 60.983000
H 20.945000 39.438281 60.707000
H 19.946000 38.306281 60.600000
O 22.823000 32.260281 58.306000
H 22.750000 33.028281 57.739000
H 22.445000 32.540281 59.139000
O 26.292000 44.728281 60.527000
H 27.123000 44.320281 60.282000
H 25.801000 44.783281 59.707000
O 28.794000 40.031281 56.294000
H 28.626000 39.853281 57.220000
H 29.495000 39.423281 56.057000
O 32.161000 3.508719 63.502000
H 32.081000 2.976719 64.293000
H 32.834000 3.067719 62.983000
O 28.970000 32.281281 60.646000
H 28.049000 32.439281 60.437000
H 29.053000 31.327281 60.660000
O 13.746000 39.211281 56.837000
H 13.442000 39.976281 56.348000
H 14.626000 39.043281 56.499000
O 26.359000 48.164281 54.517000
H 26.857000 48.756281 53.953000
H 26.889000 47.368281 54.557000
O 16.635000 52.538281 35.501000
H 16.959000 53.142281 34.833000
H 16.837000 52.967281 36.331000
O 17.896000 47.940281 47.800000
H 17.598000 47.156281 48.259000
H 18.558000 47.622281 47.186000
O 20.589000 49.079281 43.203000
H 21.474000 48.999281 42.846000
H 20.598000 49.907281 43.683000
O 24.396000 28.936281 49.117000
H 23.795000 28.524281 48.497000
H 23.895000 29.002281 49.930000
O 32.214000 1.601719 54.887000
H 32.378000 1.578719 55.830000
H 32.518000 2.466719 54.612000
O 50.080000 0.648719 39.025000
H 49.285000 0.691719 38.493000
H 49.862000 1.132719 39.822000
O 24.978000 51.016281 52.148000
H 25.578000 50.850281 52.875000
H 24.319000 50.326281 52.219000
O 54.921000 2.359719 46.794000
H 54.213000 2.698719 46.245000
H 55.280000 1.625719 46.297000
O 27.313000 50.939281 39.874000
H 27.768000 50.235281 40.337000
H 26.912000 51.462281 40.568000
O 17.122000 51.223281 38.946000
H 16.661000 51.583281 38.188000
H 17.986000 50.985281 38.612000
O 51.300000 1.987719 51.834000
H 50.671000 1.312719 51.577000
H 52.091000 1.501719 52.068000
O 29.366000 48.413281 58.525000
H 29.938000 48.747281 57.833000
H 29.835000 47.658281 58.880000
O 47.456000 2.633719 47.586000
H 46.514000 2.755719 47.474000
H 47.845000 3.438719 47.244000
O 21.694000 52.184281 56.661000
H 21.875000 53.124281 56.653000
H 20.824000 52.111281 57.052000
O 52.683000 1.293719 38.919000
H 52.950000 1.948719 38.274000
H 51.744000 1.181719 38.772000
O 29.759000 43.012281 42.575000
H 30.346000 42.829281 41.842000
H 29.108000 43.616281 42.217000
O 29.463000 42.499281 47.072000
H 29.788000 42.766281 46.212000
H 28.623000 42.078281 46.891000
O 23.589000 49.583281 44.823000
H 24.454000 49.969281 44.683000
H 23.614000 49.260281 45.724000
O 26.322000 46.784281 47.347000
H 25.796000 46.160281 46.847000
H 27.144000 46.848281 46.861000
O 56.190000 1.484719 39.273000
H 56.442000 1.924719 38.461000
H 55.601000 0.783719 38.994000
O 50.292000 1.782719 43.661000
H 51.049000 1.788719 43.076000
H 50.580000 1.277719 44.421000
O 26.885000 45.837281 36.189000
H 26.246000 46.542281 36.292000
H 26.419000 45.160281 35.698000
O 22.993000 48.629281 42.103000
H 23.253000 49.053281 42.922000
H 23.642000 47.938281 41.975000
O 51.203000 3.228719 35.301000
H 51.756000 3.797719 34.764000
H 51.816000 2.776719 35.881000
O 21.882000 51.052281 53.598000
H 22.058000 50.326281 52.999000
H 22.559000 50.978281 54.270000
O 24.415000 51.237281 42.092000
H 24.911000 51.951281 41.691000
H 23.977000 50.807281 41.358000
O 24.868000 46.934281 58.199000
H 25.585000 47.406281 58.623000
H 24.434000 47.592281 57.657000
O 1.321000 48.729281 56.720000
H 1.249000 48.393281 55.826000
H 2.092000 48.290281 57.079000
O 27.830000 30.160281 43.551000
H 28.507000 30.027281 44.215000
H 27.075000 29.669281 43.877000
O 26.300000 49.413281 42.673000
H 25.563000 49.934281 42.355000
H 26.606000 49.879281 43.451000
O 21.571000 43.118281 61.768000
H 22.386000 43.018281 62.259000
H 21.635000 43.988281 61.372000
O 29.945000 50.171281 63.765000
H 29.908000 49.749281 62.907000
H 29.052000 50.105281 64.103000
O 57.880000 1.308719 35.897000
H 58.056000 0.760719 35.132000
H 58.455000 0.960719 36.579000
O 53.234000 1.098719 49.068000
H 53.489000 0.182719 49.182000
H 53.789000 1.415719 48.356000
O 17.533000 52.437281 44.977000
H 18.269000 53.047281 45.030000
H 17.184000 52.403281 45.867000
O 24.180000 43.766281 62.649000
H 24.414000 44.030281 63.539000
H 24.698000 44.341281 62.085000
O 26.261000 43.562281 39.903000
H 26.806000 44.291281 39.608000
H 26.426000 43.503281 40.844000
O 20.736000 50.434281 64.319000
H 21.180000 49.769281 64.845000
H 19.804000 50.289281 64.485000
O 1.035000 43.070281 44.990000
H 0.532000 43.102281 44.176000
H 1.737000 43.708281 44.863000
O 57.081000 0.430719 52.096000
H 56.386000 1.002719 51.769000
H 56.824000 -0.446281 51.813000
O 30.867000 0.037719 41.581000
H 30.960000 0.350719 40.681000
H 31.525000 -0.652281 41.664000
O 23.764000 50.439281 39.583000
H 22.985000 49.975281 39.277000
H 23.792000 51.236281 39.053000
O 55.217000 1.310719 54.988000
H 54.635000 1.671719 55.656000
H 56.015000 1.835719 55.055000
O 1.057000 47.269281 54.457000
H 0.233000 46.785281 54.510000
H 1.155000 47.476281 53.528000
O 27.617000 49.490281 50.048000
H 27.518000 49.607281 50.993000
H 26.769000 49.154281 49.757000
O 29.967000 28.176281 49.454000
H 29.553000 27.421281 49.035000
H 29.619000 28.933281 48.984000
O 0.330000 53.161281 63.373000
H 0.334000 52.211281 63.255000
H 0.933000 53.488281 62.705000
O 21.789000 50.278281 49.092000
H 21.048000 49.921281 49.583000
H 22.345000 50.683281 49.758000
O 13.463000 27.286281 49.372000
H 12.617000 27.098281 49.781000
H 13.612000 26.548281 48.781000
O 21.708000 46.925281 39.937000
H 21.952000 47.536281 40.633000
H 21.777000 46.060281 40.341000
O 24.495000 45.324281 38.928000
H 24.450000 45.922281 39.674000
H 24.946000 44.551281 39.267000
O 21.480000 51.244281 45.008000
H 21.985000 51.941281 44.591000
H 22.109000 50.534281 45.136000
O 18.221000 29.160281 56.933000
H 19.090000 28.983281 57.292000
H 18.371000 29.296281 55.997000
O 34.612000 0.639719 34.988000
H 35.452000 0.996719 35.275000
H 34.143000 0.446719 35.800000
O 50.309000 0.679719 46.263000
H 50.614000 -0.197281 46.494000
H 50.334000 1.166719 47.086000
O 21.600000 49.117281 38.431000
H 21.176000 48.370281 38.853000
H 20.908000 49.774281 38.354000
O 27.485000 52.292281 54.391000
H 27.398000 52.804281 53.587000
H 28.429000 52.186281 54.507000
O 2.327000 52.381281 49.038000
H 3.202000 52.765281 49.094000
H 2.069000 52.504281 48.124000
O 28.747000 47.075281 51.272000
H 28.380000 47.693281 50.639000
H 29.605000 47.440281 51.492000
O 26.322000 51.412281 48.271000
H 26.763000 52.254281 48.161000
H 27.029000 50.767281 48.262000
O 18.221000 46.271281 43.989000
H 18.712000 46.334281 44.809000
H 18.380000 47.107281 43.550000
O 49.354000 0.494719 51.102000
H 48.777000 1.096719 50.632000
H 48.783000 0.060719 51.736000
O 25.122000 43.827281 35.125000
H 24.416000 43.746281 35.767000
H 25.685000 43.071281 35.292000
O 23.917000 52.046281 49.769000
H 24.614000 51.841281 49.146000
H 24.324000 51.938281 50.628000
O 19.785000 47.927281 62.832000
H 19.752000 48.291281 63.716000
H 20.629000 48.217281 62.485000
O 44.734000 2.654719 46.867000
H 44.345000 3.492719 46.618000
H 45.013000 2.263719 46.038000
O 60.342000 1.719719 43.540000
H 59.385000 1.729719 43.568000
H 60.556000 1.063719 42.877000
O 3.140000 27.312281 37.441000
H 3.360000 27.475281 36.524000
H 3.540000 28.040281 37.917000
O 0.730000 41.736281 36.192000
H 0.617000 40.788281 36.268000
H 0.022000 42.016281 35.612000
O 26.557000 27.017281 35.505000
H 27.342000 27.489281 35.782000
H 26.822000 26.097281 35.495000
O 19.871000 51.222281 38.207000
H 19.899000 51.538281 37.304000
H 19.919000 52.016281 38.740000
O 25.424000 30.179281 55.660000
H 25.721000 29.753281 54.856000
H 24.470000 30.197281 55.583000
O 26.170000 53.155281 41.330000
H 26.134000 53.717281 40.556000
H 26.498000 53.726281 42.025000
O 55.542000 2.136719 50.375000
H 54.790000 1.771719 49.910000
H 56.051000 2.580719 49.697000
O 26.621000 41.476281 42.328000
H 27.507000 41.141281 42.187000
H 26.749000 42.378281 42.620000
O 20.183000 32.262281 52.305000
H 20.650000 31.809281 53.007000
H 20.861000 32.474281 51.664000
O 25.198000 48.194281 49.278000
H 24.410000 48.455281 48.803000
H 25.645000 47.588281 48.688000
O 22.082000 46.025281 64.123000
H 22.136000 46.528281 63.311000
H 21.300000 45.482281 64.018000
O 22.365000 31.966281 38.103000
H 22.910000 32.282281 37.382000
H 21.957000 31.169281 37.765000
O 26.135000 51.099281 45.588000
H 27.068000 50.971281 45.419000
H 26.073000 51.186281 46.539000
O 0.729000 50.598281 51.629000
H 1.404000 51.073281 52.113000
H 0.511000 51.173281 50.895000
O 27.750000 46.604281 40.527000
H 28.022000 46.240281 39.684000
H 26.937000 47.072281 40.335000
O 55.919000 0.438719 45.163000
H 56.093000 -0.470281 45.406000
H 55.193000 0.386719 44.541000
O 19.517000 27.312281 45.137000
H 19.325000 26.422281 44.841000
H 18.889000 27.471281 45.841000
O 28.290000 52.831281 37.643000
H 27.734000 52.236281 38.145000
H 28.926000 52.259281 37.213000
O 47.575000 1.600719 42.905000
H 47.324000 0.745719 42.556000
H 48.475000 1.481719 43.208000
O 27.466000 49.577281 64.433000
H 27.190000 49.624281 65.349000
H 27.443000 48.644281 64.223000
O 59.157000 2.618719 51.640000
H 58.695000 3.452719 51.718000
H 58.508000 1.960719 51.890000
O 27.189000 44.192281 42.318000
H 26.844000 44.648281 43.085000
H 27.707000 44.853281 41.858000
O 23.025000 27.223281 42.297000
H 22.712000 27.315281 43.197000
H 22.758000 28.035281 41.866000
O 0.221000 49.812281 39.349000
H 0.863000 49.155281 39.081000
H -0.353000 49.351281 39.962000
O 53.500000 1.759719 56.962000
H 52.772000 2.376719 56.885000
H 53.900000 1.964719 57.807000
O 17.365000 52.674281 53.276000
H 17.972000 51.951281 53.433000
H 16.521000 52.250281 53.121000
O 18.112000 45.990281 62.020000
H 18.617000 46.636281 62.515000
H 18.756000 45.567281 61.452000
O 19.906000 51.111281 61.044000
H 20.060000 50.739281 61.912000
H 19.382000 50.451281 60.589000
O 25.273000 28.686281 37.167000
H 25.615000 29.421281 36.658000
H 25.520000 27.910281 36.663000
O 52.533000 2.698719 61.371000
H 51.954000 3.398719 61.672000
H 52.207000 2.475719 60.499000
O 14.619000 27.508281 38.019000
H 13.973000 28.213281 38.065000
H 14.984000 27.575281 37.136000
O 25.863000 28.029281 57.180000
H 26.026000 27.342281 56.534000
H 25.887000 28.842281 56.677000
O 17.939000 26.741281 36.546000
H 17.281000 27.176281 36.003000
H 18.648000 26.529281 35.939000
O 30.051000 49.921281 60.984000
H 30.286000 49.019281 60.766000
H 29.622000 50.254281 60.195000
O 30.166000 28.977281 56.296000
H 29.399000 29.301281 56.769000
H 29.924000 28.093281 56.023000
O 28.878000 42.562281 64.371000
H 28.193000 42.333281 64.999000
H 28.502000 42.348281 63.517000
O 26.258000 51.373281 62.217000
H 26.427000 51.208281 61.289000
H 26.810000 50.740281 62.677000
O 54.778000 1.281719 62.431000
H 54.095000 1.740719 61.942000
H 54.737000 0.380719 62.112000
O 3.588000 51.103281 54.267000
H 3.409000 51.669281 53.515000
H 3.128000 51.521281 54.995000
O 22.821000 52.176281 61.042000
H 21.874000 52.216281 60.911000
H 23.161000 51.816281 60.223000
O 49.501000 0.506719 61.049000
H 49.918000 0.782719 61.865000
H 49.790000 -0.397281 60.925000
O 18.985000 51.341281 56.801000
H 19.246000 51.057281 55.925000
H 18.290000 51.981281 56.648000
O 28.086000 50.203281 53.133000
H 28.896000 50.512281 52.729000
H 27.819000 50.916281 53.713000
O 27.915000 32.275281 64.007000
H 27.408000 32.354281 63.200000
H 27.504000 31.550281 64.479000
O 23.452000 51.025281 58.602000
H 23.960000 50.354281 58.147000
H 23.116000 51.587281 57.903000
O 24.208000 49.063281 56.286000
H 24.894000 48.695281 55.729000
H 24.211000 49.999281 56.084000
O 22.429000 47.345281 54.505000
H 22.329000 47.707281 55.385000
H 22.177000 46.426281 54.593000
O 28.462000 43.281281 59.752000
H 28.342000 42.701281 60.504000
H 29.318000 43.686281 59.896000
O 53.703000 3.470719 52.867000
H 52.749000 3.402719 52.890000
H 54.009000 2.563719 52.851000
O 26.862000 48.013281 59.497000
H 26.549000 48.916281 59.446000
H 27.702000 48.024281 59.038000
O 3.681000 47.795281 57.581000
H 3.450000 46.935281 57.229000
H 3.993000 47.615281 58.467000
O 24.795000 51.832281 55.456000
H 25.564000 51.815281 54.886000
H 24.479000 52.735281 55.407000
O 55.234000 0.982719 35.452000
H 56.047000 1.329719 35.821000
H 55.471000 0.707719 34.566000
O 53.393000 2.506719 36.656000
H 54.013000 1.959719 36.173000
H 53.595000 3.400719 36.380000
O 19.510000 27.247281 38.824000
H 19.155000 27.024281 37.963000
H 18.803000 27.042281 39.436000
O 57.316000 2.941719 55.181000
H 58.226000 2.734719 55.396000
H 57.377000 3.641719 54.532000
O 23.843000 50.379281 62.798000
H 23.148000 50.687281 62.217000
H 24.623000 50.852281 62.511000
O 24.810000 27.062281 63.426000
H 25.538000 26.957281 64.039000
H 24.430000 26.186281 63.354000
O 21.709000 41.567281 55.083000
H 21.748000 40.610281 55.097000
H 20.962000 41.768281 54.518000
O 2.248000 51.535281 61.018000
H 1.470000 50.994281 60.884000
H 2.511000 51.799281 60.136000
O 2.097000 49.660281 48.478000
H 2.542000 50.461281 48.753000
H 1.700000 49.319281 49.279000
O 50.911000 1.449719 63.290000
H 50.977000 2.101719 63.988000
H 51.665000 1.624719 62.727000
O 26.346000 49.802281 37.000000
H 26.473000 50.052281 37.915000
H 25.590000 50.313281 36.713000
O 20.881000 52.493281 35.716000
H 21.219000 53.287281 35.303000
H 20.936000 51.825281 35.033000
O 55.436000 1.961719 59.545000
H 55.969000 1.267719 59.158000
H 55.765000 2.045719 60.440000
O 49.812000 3.195719 54.041000
H 48.870000 3.343719 53.960000
H 50.019000 2.581719 53.336000
O 32.988000 1.678719 57.382000
H 33.920000 1.618719 57.593000
H 32.555000 1.769719 58.231000
O 21.692000 45.461281 60.755000
H 22.267000 46.131281 61.125000
H 20.916000 45.942281 60.467000
O 5.699000 50.870281 58.457000
H 5.696000 50.438281 59.311000
H 6.045000 50.211281 57.856000
O 18.883000 49.408281 59.120000
H 19.816000 49.194281 59.086000
H 18.758000 50.046281 58.418000
O 58.290000 2.562719 61.069000
H 58.090000 3.370719 61.542000
H 58.271000 1.880719 61.741000
O 23.723000 27.623281 58.621000
H 24.455000 28.019281 58.148000
H 24.109000 26.874281 59.076000
O 20.607000 48.964281 51.042000
H 20.681000 48.627281 51.935000
H 19.721000 49.322281 50.993000
O 19.169000 50.770281 54.020000
H 19.344000 49.831281 54.089000
H 19.986000 51.143281 53.690000
O 2.602000 27.477281 54.411000
H 3.533000 27.462281 54.189000
H 2.166000 27.731281 53.598000
O 0.963000 51.544281 57.073000
H 0.915000 50.590281 57.121000
H 1.757000 51.769281 57.558000
O 23.923000 52.799281 37.970000
H 23.798000 52.652281 37.032000
H 23.067000 53.090281 38.283000
O -1.581000 3.158719 56.028000
H -1.800000 2.814719 56.894000
H -0.910000 2.562719 55.696000
O 59.143000 0.413719 47.828000
H 59.127000 1.362719 47.948000
H 59.656000 0.281719 47.030000
O 9.245000 28.400281 38.364000
H 9.913000 28.183281 37.713000
H 9.670000 28.237281 39.207000
O 56.613000 0.053719 58.098000
H 56.134000 0.146719 57.274000
H 57.517000 0.278719 57.876000
O 0.418000 34.124281 56.567000
H 0.479000 33.302281 57.054000
H 0.112000 33.866281 55.698000
O 7.467000 44.349281 57.945000
H 7.984000 43.709281 58.435000
H 6.616000 43.928281 57.825000
O 29.059000 51.784281 59.327000
H 29.202000 51.858281 58.384000
H 29.467000 52.569281 59.694000
O 49.084000 3.043719 60.398000
H 48.926000 2.871719 59.470000
H 49.190000 2.176719 60.788000
O 20.942000 30.057281 66.378000
H 21.685000 29.530281 66.083000
H 20.900000 30.782281 65.755000
O 7.738000 35.108281 16.717000
H 8.469000 35.215281 17.326000
H 7.433000 35.999281 16.550000
O 5.099000 43.607281 14.750000
H 5.483000 43.541281 15.624000
H 4.415000 42.938281 14.737000
O 3.715000 31.468281 12.413000
H 2.780000 31.555281 12.228000
H 4.121000 31.359281 11.553000
O 13.533000 43.706281 13.627000
H 13.568000 42.962281 14.229000
H 12.644000 43.686281 13.272000
O 6.687000 51.013281 10.256000
H 7.243000 51.679281 10.659000
H 5.826000 51.425281 10.192000
O 10.431000 41.740281 24.463000
H 9.693000 41.206281 24.756000
H 11.108000 41.598281 25.125000
O 41.759000 3.060719 10.109000
H 41.384000 3.582719 10.818000
H 41.920000 2.202719 10.502000
O 22.014000 48.721281 65.831000
H 22.031000 47.764281 65.814000
H 21.902000 48.943281 66.755000
O 3.952000 34.334281 11.311000
H 3.815000 33.411281 11.523000
H 4.204000 34.737281 12.143000
O 15.902000 36.818281 12.434000
H 16.270000 37.658281 12.161000
H 15.031000 37.035281 12.767000
O 15.409000 35.063281 66.006000
H 15.992000 35.512281 66.618000
H 14.728000 35.706281 65.806000
O 11.188000 41.399281 10.685000
H 11.024000 41.653281 9.776000
H 10.326000 41.166281 11.028000
O 26.567000 32.776281 16.177000
H 26.168000 33.351281 16.830000
H 25.951000 32.049281 16.090000
O 25.029000 47.634281 66.223000
H 24.640000 47.546281 67.093000
H 25.238000 48.565281 66.146000
O 7.595000 35.018281 66.578000
H 8.391000 35.086281 66.050000
H 7.195000 34.193281 66.303000
O 8.077000 41.706281 13.002000
H 7.758000 40.938281 13.477000
H 7.825000 42.449281 13.550000
O 10.334000 32.208281 8.759000
H 10.665000 32.026281 9.639000
H 10.700000 33.064281 8.537000
O 12.982000 36.439281 65.679000
H 12.730000 35.607281 66.080000
H 12.228000 37.011281 65.821000
O 1.567000 38.037281 12.947000
H 1.455000 38.684281 12.251000
H 1.750000 38.557281 13.730000
O 17.988000 33.790281 10.503000
H 18.707000 33.361281 10.040000
H 17.429000 34.139281 9.808000
O 12.605000 44.581281 24.247000
H 12.899000 45.202281 24.913000
H 11.683000 44.796281 24.108000
O 6.180000 37.610281 11.885000
H 5.761000 36.896281 12.368000
H 5.497000 38.276281 11.802000
O 1.010000 31.721281 12.422000
H 0.814000 32.036281 11.540000
H 0.631000 30.842281 12.453000
O 16.556000 45.362281 66.571000
H 17.336000 45.259281 67.116000
H 16.786000 44.943281 65.741000
O 16.731000 30.255281 13.369000
H 17.624000 30.178281 13.707000
H 16.840000 30.362281 12.425000
O 31.325000 3.341719 67.652000
H 32.217000 3.684719 67.604000
H 31.226000 2.815719 66.859000
O 10.864000 38.164281 65.498000
H 10.320000 37.410281 65.729000
H 10.793000 38.751281 66.250000
O 12.567000 35.829281 12.147000
H 11.814000 36.153281 11.652000
H 12.886000 36.594281 12.626000
O 11.679000 29.321281 23.526000
H 11.960000 28.554281 24.025000
H 12.319000 29.997281 23.745000
O 14.767000 37.938281 67.408000
H 14.075000 37.346281 67.114000
H 15.574000 37.434281 67.303000
O 5.799000 35.714281 20.969000
H 5.063000 35.431281 21.511000
H 6.498000 35.904281 21.594000
O 24.708000 41.364281 12.911000
H 24.482000 41.844281 13.707000
H 25.634000 41.145281 13.017000
O 14.020000 46.689281 11.935000
H 13.789000 46.813281 12.856000
H 14.876000 47.108281 11.844000
O 13.284000 40.500281 13.207000
H 12.358000 40.529281 12.969000
H 13.729000 40.210281 12.410000
O 13.443000 36.901281 9.451000
H 13.450000 37.743281 9.906000
H 14.131000 36.391281 9.878000
O 3.615000 46.055281 8.928000
H 2.945000 46.270281 8.278000
H 3.495000 45.120281 9.096000
O 13.588000 37.802281 13.581000
H 13.086000 37.469281 14.325000
H 13.433000 38.747281 13.590000
O 16.306000 27.522281 13.802000
H 15.431000 27.237281 13.537000
H 16.405000 28.388281 13.408000
O 33.719000 3.035719 9.919000
H 33.548000 2.620719 9.073000
H 33.014000 2.723719 10.486000
O 2.581000 40.903281 8.784000
H 2.938000 40.541281 7.973000
H 1.670000 40.608281 8.799000
O 1.328000 35.475281 11.965000
H 2.177000 35.262281 11.579000
H 1.419000 36.380281 12.262000
O 19.502000 41.185281 12.922000
H 20.076000 41.490281 12.219000
H 19.661000 40.243281 12.971000
O 7.569000 44.353281 13.947000
H 7.807000 44.689281 13.083000
H 6.612000 44.331281 13.942000
O 20.644000 42.483281 10.481000
H 20.386000 43.242281 11.005000
H 21.597000 42.450281 10.559000
O 10.462000 40.420281 13.632000
H 9.680000 40.967281 13.557000
H 10.138000 39.583281 13.965000
O 45.082000 2.040719 24.211000
H 44.970000 2.236719 23.281000
H 45.960000 2.361719 24.420000
O 17.307000 36.631281 22.735000
H 17.751000 37.107281 23.437000
H 16.401000 36.553281 23.033000
O 0.924000 32.247281 9.692000
H 1.313000 32.695281 8.941000
H 0.540000 31.451281 9.325000
O 15.712000 34.434281 9.015000
H 15.063000 33.743281 9.154000
H 15.737000 34.552281 8.066000
O 10.843000 31.851281 11.508000
H 10.808000 32.758281 11.811000
H 11.778000 31.657281 11.437000
O 28.561000 46.783281 24.436000
H 28.394000 46.146281 23.741000
H 28.008000 46.495281 25.163000
O 13.598000 39.354281 19.498000
H 12.794000 38.839281 19.567000
H 13.869000 39.255281 18.586000
O 19.697000 32.533281 8.952000
H 19.377000 31.785281 9.457000
H 20.651000 32.459281 8.994000
O 30.080000 41.526281 18.172000
H 29.655000 41.075281 17.442000
H 29.370000 41.708281 18.788000
O 6.077000 48.926281 12.162000
H 6.232000 49.774281 11.747000
H 6.346000 49.051281 13.072000
O 4.069000 34.108281 65.276000
H 3.616000 33.267281 65.214000
H 3.468000 34.669281 65.766000
O 19.012000 44.847281 67.645000
H 18.855000 43.964281 67.312000
H 19.880000 45.078281 67.316000
O 29.928000 39.906281 11.771000
H 29.131000 39.420281 11.984000
H 29.846000 40.102281 10.837000
O 48.060000 0.966719 23.655000
H 47.747000 0.805719 22.765000
H 49.002000 1.103719 23.558000
O 8.359000 39.940281 8.996000
H 7.776000 39.857281 8.241000
H 8.406000 39.057281 9.362000
O 11.990000 41.462281 66.617000
H 11.695000 42.352281 66.813000
H 12.786000 41.582281 66.099000
O 12.967000 46.594281 66.092000
H 12.493000 47.274281 65.614000
H 13.687000 47.059281 66.519000
O 14.114000 42.178281 25.120000
H 13.838000 43.061281 24.877000
H 14.097000 41.686281 24.299000
O 4.743000 41.217281 67.527000
H 4.711000 41.945281 68.148000
H 4.846000 41.636281 66.672000
O 3.116000 43.406281 9.164000
H 4.036000 43.153281 9.089000
H 2.630000 42.620281 8.913000
O 10.163000 37.848281 14.050000
H 11.015000 37.570281 14.389000
H 9.528000 37.466281 14.657000
O 15.525000 42.834281 11.914000
H 14.654000 42.751281 12.303000
H 16.093000 42.317281 12.486000
O 12.233000 27.026281 24.692000
H 13.133000 26.702281 24.709000
H 11.694000 26.236281 24.643000
O 18.909000 41.311281 8.653000
H 19.568000 41.750281 9.192000
H 19.230000 40.414281 8.565000
O 14.719000 40.026281 23.085000
H 14.173000 40.270281 22.338000
H 15.498000 40.576281 23.002000
O 11.444000 43.773281 12.119000
H 11.613000 42.902281 11.759000
H 11.789000 44.376281 11.461000
O 8.138000 37.316281 9.816000
H 7.435000 37.148281 10.443000
H 8.942000 37.219281 10.326000
O 7.785000 42.415281 10.456000
H 7.870000 42.078281 11.348000
H 7.831000 41.637281 9.900000
O 23.180000 42.418281 10.722000
H 23.768000 42.000281 11.352000
H 23.697000 43.131281 10.347000
O 10.140000 36.500281 11.429000
H 10.119000 37.106281 12.170000
H 9.803000 35.676281 11.783000
O 38.239000 1.972719 10.955000
H 38.457000 1.314719 11.615000
H 37.463000 2.412719 11.301000
O 45.657000 2.660719 21.648000
H 45.758000 1.709719 21.667000
H 46.541000 2.993719 21.495000
O 10.061000 31.494281 24.232000
H 10.666000 30.769281 24.074000
H 9.458000 31.163281 24.898000
O 2.419000 35.644281 67.280000
H 2.269000 35.075281 68.035000
H 3.098000 36.253281 67.569000
O 16.095000 42.664281 19.400000
H 16.967000 42.513281 19.764000
H 15.512000 42.650281 20.159000
O 19.916000 34.265281 23.445000
H 20.204000 34.666281 22.625000
H 18.989000 34.496281 23.512000
O 13.295000 31.344281 24.238000
H 13.906000 32.007281 23.917000
H 12.732000 31.814281 24.853000
O 19.959000 38.210281 13.139000
H 19.185000 37.863281 13.583000
H 20.607000 38.316281 13.836000
O 7.913000 36.272281 22.445000
H 8.248000 35.453281 22.812000
H 8.540000 36.936281 22.730000
O 9.442000 27.949281 22.724000
H 9.167000 27.448281 23.493000
H 10.164000 28.493281 23.037000
O 16.907000 31.608281 23.053000
H 16.671000 31.181281 23.877000
H 16.379000 31.161281 22.392000
O 3.280000 44.764281 19.437000
H 4.029000 44.328281 19.030000
H 3.285000 44.455281 20.343000
O 3.975000 38.005281 22.003000
H 3.394000 38.270281 22.716000
H 3.977000 37.048281 22.037000
O 9.551000 39.280281 17.619000
H 10.179000 38.700281 18.050000
H 8.918000 39.498281 18.303000
O 25.670000 34.103281 23.632000
H 25.859000 34.124281 24.570000
H 25.845000 33.199281 23.371000
O 20.003000 44.912281 11.742000
H 19.189000 45.325281 11.454000
H 19.957000 44.931281 12.697000
O 17.172000 34.465281 19.105000
H 17.060000 33.566281 18.795000
H 16.812000 35.008281 18.404000
O 13.393000 36.621281 17.925000
H 14.240000 36.594281 17.480000
H 13.565000 36.250281 18.790000
O 9.458000 38.200281 23.092000
H 10.167000 38.281281 23.729000
H 9.757000 38.701281 22.333000
O 6.265000 48.760281 17.017000
H 5.379000 48.412281 17.119000
H 6.834000 48.077281 17.374000
O 12.593000 33.787281 14.925000
H 13.532000 33.700281 15.089000
H 12.506000 33.699281 13.976000
O 17.266000 40.145281 65.371000
H 16.396000 40.266281 65.752000
H 17.249000 40.662281 64.565000
O 18.321000 46.502281 16.787000
H 18.200000 45.609281 16.462000
H 17.564000 46.657281 17.351000
O 16.158000 27.880281 24.823000
H 16.036000 28.811281 25.011000
H 16.680000 27.864281 24.020000
O 17.522000 44.176281 15.853000
H 17.345000 43.279281 16.136000
H 16.835000 44.367281 15.215000
O 11.628000 32.691281 17.870000
H 11.480000 31.798281 17.560000
H 12.294000 32.600281 18.552000
O 10.028000 39.574281 20.979000
H 10.400000 38.974281 20.333000
H 9.164000 39.796281 20.632000
O 1.875000 29.872281 23.366000
H 1.713000 30.781281 23.113000
H 1.004000 29.510281 23.529000
O 10.366000 35.667281 21.110000
H 11.091000 35.402281 21.677000
H 9.613000 35.731281 21.698000
O 1.087000 46.024281 67.999000
H 1.507000 45.375281 67.434000
H 1.590000 46.826281 67.859000
O 19.084000 36.240281 20.386000
H 18.574000 35.538281 19.981000
H 18.504000 36.602281 21.056000
O 21.754000 32.968281 20.850000
H 20.892000 33.086281 20.453000
H 22.055000 33.856281 21.042000
O 10.357000 45.609281 23.226000
H 9.417000 45.775281 23.292000
H 10.508000 45.449281 22.294000
O 16.104000 42.093281 16.575000
H 15.184000 41.920281 16.376000
H 16.118000 42.264281 17.517000
O 8.844000 42.775281 19.587000
H 8.274000 42.602281 20.336000
H 9.501000 43.386281 19.921000
O 15.211000 30.422281 21.118000
H 14.615000 29.675281 21.183000
H 14.699000 31.099281 20.677000
O 2.154000 44.183281 66.143000
H 2.133000 44.737281 65.363000
H 1.471000 43.530281 65.993000
O 14.303000 46.915281 16.803000
H 13.457000 47.002281 17.242000
H 14.761000 46.235281 17.297000
O 0.894000 27.892281 19.918000
H 1.628000 28.158281 20.473000
H 1.220000 27.996281 19.024000
O 16.137000 38.021281 20.230000
H 15.373000 38.597281 20.211000
H 16.377000 37.972281 21.156000
O 7.348000 26.783281 67.648000
H 8.061000 27.323281 67.991000
H 7.100000 26.219281 68.381000
O 35.653000 1.410719 17.560000
H 36.338000 1.633719 16.931000
H 35.887000 1.893719 18.352000
O 16.757000 41.153281 13.660000
H 17.678000 41.410281 13.632000
H 16.423000 41.542281 14.468000
O 13.802000 46.510281 22.618000
H 13.325000 45.765281 22.983000
H 13.365000 46.692281 21.786000
O 27.528000 35.225281 21.800000
H 28.130000 35.682281 22.387000
H 26.900000 34.798281 22.384000
O 11.282000 48.145281 24.468000
H 11.566000 48.869281 23.911000
H 11.043000 47.450281 23.855000
O 8.558000 30.665281 66.850000
H 7.630000 30.568281 66.636000
H 8.779000 29.863281 67.325000
O 16.735000 41.743281 23.031000
H 17.264000 41.750281 22.233000
H 16.637000 42.667281 23.262000
O 12.110000 27.899281 19.369000
H 12.562000 28.279281 20.122000
H 12.737000 27.275281 19.003000
O 13.525000 33.484281 12.368000
H 13.274000 34.354281 12.056000
H 14.478000 33.521281 12.440000
O 6.993000 39.340281 13.779000
H 6.926000 38.627281 13.144000
H 6.109000 39.702281 13.828000
O 13.959000 41.604281 20.857000
H 13.903000 40.924281 20.186000
H 13.049000 41.843281 21.033000
O 11.539000 33.416281 65.553000
H 10.927000 32.894281 65.033000
H 11.549000 32.991281 66.410000
O 15.802000 31.875281 67.715000
H 15.673000 32.781281 67.996000
H 16.187000 31.440281 68.476000
O 12.504000 35.178281 22.737000
H 12.573000 34.444281 23.348000
H 12.989000 35.888281 23.158000
O 7.795000 37.627281 15.811000
H 7.574000 38.261281 15.129000
H 8.473000 38.060281 16.330000
O 13.571000 41.665281 15.646000
H 13.671000 41.118281 14.868000
H 12.641000 41.603281 15.866000
O 14.200000 32.814281 19.265000
H 15.009000 32.599281 18.801000
H 14.369000 33.669281 19.661000
O 8.819000 33.848281 23.465000
H 9.359000 33.084281 23.263000
H 8.027000 33.485281 23.861000
O 5.235000 37.009281 67.785000
H 5.832000 36.371281 67.393000
H 5.549000 37.111281 68.683000
O 5.388000 30.715281 23.790000
H 5.029000 31.067281 22.975000
H 5.971000 30.009281 23.510000
O 18.857000 30.353281 22.078000
H 19.448000 30.940281 21.608000
H 18.145000 30.919281 22.379000
O 45.477000 2.626719 11.574000
H 45.042000 3.457719 11.381000
H 46.210000 2.591719 10.959000
O 12.172000 36.624281 15.523000
H 12.456000 35.717281 15.414000
H 12.375000 36.831281 16.436000
O 13.023000 45.509281 20.048000
H 12.600000 46.075281 19.403000
H 13.770000 45.131281 19.584000
O 29.434000 28.716281 23.432000
H 30.080000 28.011281 23.458000
H 28.899000 28.581281 24.214000
O 3.370000 38.899281 66.514000
H 3.580000 39.704281 66.988000
H 4.149000 38.351281 66.615000
O 7.909000 39.840281 24.819000
H 8.319000 39.148281 24.300000
H 7.115000 40.064281 24.334000
O 6.386000 33.177281 24.480000
H 5.606000 33.677281 24.717000
H 6.050000 32.326281 24.198000
O 9.220000 33.926281 12.281000
H 8.287000 33.781281 12.124000
H 9.371000 33.587281 13.163000
O 11.222000 37.702281 19.324000
H 10.669000 37.086281 19.804000
H 11.866000 37.150281 18.879000
O 17.435000 44.123281 24.361000
H 17.405000 44.640281 23.556000
H 18.352000 43.858281 24.442000
O 27.077000 38.474281 24.727000
H 26.122000 38.540281 24.717000
H 27.308000 38.470281 25.656000
O 13.402000 28.538281 12.821000
H 12.533000 28.378281 12.452000
H 13.287000 28.422281 13.764000
O 43.919000 2.210719 13.856000
H 44.360000 2.214719 13.006000
H 44.248000 1.424719 14.294000
O 15.279000 45.146281 18.582000
H 15.760000 44.354281 18.820000
H 15.602000 45.814281 19.188000
O 13.974000 35.964281 20.448000
H 13.389000 36.079281 21.197000
H 14.720000 36.534281 20.637000
O 10.946000 41.384281 16.285000
H 10.799000 40.948281 15.446000
H 10.546000 40.801281 16.931000
O 15.720000 53.120281 18.797000
H 15.373000 54.011281 18.737000
H 14.971000 52.558281 18.600000
O 7.970000 45.142281 10.114000
H 8.021000 44.201281 10.278000
H 7.038000 45.349281 10.190000
O 11.507000 41.886281 22.008000
H 10.995000 41.247281 21.511000
H 11.183000 41.807281 22.905000
O 15.597000 45.129281 14.317000
H 15.428000 46.031281 14.586000
H 14.730000 44.762281 14.146000
O 10.665000 44.410281 20.923000
H 11.552000 44.674281 20.675000
H 10.789000 43.621281 21.450000
O 7.800000 27.255281 24.830000
H 7.478000 27.207281 25.730000
H 7.070000 26.937281 24.298000
O 4.836000 43.514281 17.351000
H 4.205000 42.829281 17.571000
H 4.307000 44.215281 16.970000
O 3.485000 41.307281 23.789000
H 2.992000 40.487281 23.797000
H 3.402000 41.647281 24.679000
O 16.863000 39.194281 11.940000
H 16.730000 39.972281 12.483000
H 16.932000 39.533281 11.048000
O 20.234000 42.276281 18.308000
H 19.638000 41.630281 17.929000
H 20.851000 41.758281 18.826000
O 9.497000 33.356281 15.043000
H 10.406000 33.426281 15.333000
H 9.048000 34.079281 15.482000
O 7.796000 45.890281 23.661000
H 7.370000 45.062281 23.439000
H 7.136000 46.558281 23.475000
O 14.400000 37.189281 23.465000
H 14.583000 38.111281 23.282000
H 13.990000 37.193281 24.330000
O 13.175000 39.581281 10.435000
H 12.403000 40.135281 10.554000
H 13.609000 39.937281 9.660000
O 20.325000 43.520281 24.368000
H 20.534000 43.184281 23.497000
H 20.765000 42.918281 24.969000
O 0.822000 37.019281 19.971000
H 1.233000 36.462281 19.311000
H 0.695000 36.444281 20.726000
O 16.616000 30.548281 65.584000
H 17.325000 30.005281 65.928000
H 16.275000 31.012281 66.350000
O 6.496000 42.091281 20.906000
H 6.575000 41.246281 21.348000
H 5.577000 42.140281 20.643000
O 14.477000 52.981281 11.988000
H 14.755000 53.897281 11.998000
H 15.148000 52.532281 11.474000
O 13.520000 28.427281 21.432000
H 12.881000 28.491281 22.142000
H 14.076000 27.687281 21.674000
O 2.900000 41.396281 17.575000
H 2.055000 41.483281 18.017000
H 3.259000 40.572281 17.904000
O 12.162000 48.881281 20.254000
H 11.393000 48.696281 19.715000
H 12.754000 49.357281 19.672000
O 14.780000 48.486281 67.134000
H 15.714000 48.431281 67.335000
H 14.367000 48.704281 67.970000
O 14.620000 51.551281 67.094000
H 15.281000 51.747281 66.429000
H 14.387000 50.635281 66.938000
O 8.350000 52.608281 12.158000
H 8.935000 51.860281 12.041000
H 7.813000 52.376281 12.916000
O 2.273000 53.106281 67.007000
H 2.628000 53.321281 67.870000
H 1.417000 52.718281 67.190000
O 2.484000 52.786281 12.317000
H 1.949000 53.565281 12.471000
H 3.044000 53.021281 11.577000
O 6.631000 43.942281 67.435000
H 7.421000 44.353281 67.084000
H 6.946000 43.150281 67.870000
O 1.828000 44.163281 11.446000
H 2.365000 44.087281 10.657000
H 2.340000 44.721281 12.032000
O 9.885000 46.947281 9.347000
H 9.166000 46.316281 9.379000
H 10.621000 46.493281 9.759000
O 13.136000 49.203281 10.418000
H 13.480000 48.441281 10.884000
H 13.816000 49.422281 9.781000
O 12.046000 52.207281 66.967000
H 12.872000 51.919281 67.357000
H 11.370000 51.774281 67.489000
O 16.404000 47.770281 12.206000
H 17.060000 48.064281 11.574000
H 16.700000 48.127281 13.043000
O 8.819000 44.882281 66.286000
H 8.400000 45.325281 65.548000
H 9.648000 44.559281 65.933000
O 10.400000 49.688281 9.391000
H 11.279000 49.575281 9.754000
H 10.044000 48.801281 9.346000
O 4.716000 43.212281 65.667000
H 3.960000 43.558281 66.141000
H 5.471000 43.475281 66.194000
O 12.120000 45.776281 10.295000
H 12.745000 46.091281 10.948000
H 12.645000 45.644281 9.505000
O 11.419000 50.110281 22.599000
H 11.915000 50.914281 22.440000
H 11.689000 49.519281 21.896000
O 11.803000 52.562281 19.388000
H 10.909000 52.864281 19.227000
H 11.932000 52.682281 20.329000
O 12.228000 44.248281 67.680000
H 13.130000 43.983281 67.859000
H 12.310000 45.032281 67.137000
O 12.858000 52.995281 24.573000
H 13.476000 53.725281 24.613000
H 12.599000 52.850281 25.483000
O 16.260000 51.518281 10.360000
H 15.667000 50.999281 9.816000
H 16.662000 52.139281 9.753000
O 9.046000 50.013281 11.866000
H 9.480000 49.821281 11.035000
H 8.309000 49.403281 11.899000
O 4.304000 39.881281 13.004000
H 3.863000 40.565281 13.508000
H 4.444000 40.271281 12.141000
O 31.526000 1.616719 10.996000
H 31.277000 0.744719 10.693000
H 30.707000 2.007719 11.302000
O 2.517000 28.935281 9.660000
H 2.885000 28.052281 9.618000
H 1.595000 28.821281 9.430000
O 15.791000 28.034281 16.458000
H 16.617000 28.412281 16.758000
H 15.932000 27.855281 15.528000
O 8.877000 51.171281 24.018000
H 8.271000 50.433281 24.075000
H 9.734000 50.768281 23.883000
O 24.112000 50.725281 65.388000
H 23.275000 50.270281 65.484000
H 24.252000 50.773281 64.442000
O 15.510000 48.627281 23.965000
H 14.980000 48.641281 24.762000
H 15.173000 47.884281 23.465000
O 15.676000 51.297281 15.875000
H 15.013000 50.883281 16.428000
H 15.624000 50.826281 15.044000
O 3.905000 50.585281 67.298000
H 4.646000 50.707281 67.891000
H 3.493000 51.448281 67.248000
O 3.507000 48.708281 10.816000
H 3.772000 47.972281 10.264000
H 4.302000 48.948281 11.293000
O 10.185000 47.886281 14.510000
H 9.872000 47.913281 13.605000
H 9.589000 47.281281 14.951000
O 10.990000 44.122281 16.836000
H 10.288000 44.672281 16.489000
H 10.725000 43.228281 16.620000
O 59.269000 1.724719 18.606000
H 60.023000 1.339719 19.053000
H 58.788000 2.179719 19.297000
O 17.599000 45.822281 9.165000
H 17.635000 44.938281 8.801000
H 17.378000 45.693281 10.088000
O 4.238000 51.981281 22.925000
H 3.958000 52.475281 23.696000
H 3.462000 51.487281 22.661000
O 18.307000 49.632281 65.065000
H 17.411000 49.751281 64.751000
H 18.212000 49.138281 65.880000
O 4.308000 31.096281 9.747000
H 3.686000 30.369281 9.701000
H 5.055000 30.806281 9.225000
O 17.848000 49.308281 10.443000
H 17.369000 50.131281 10.349000
H 17.959000 48.991281 9.547000
O 26.532000 50.994281 19.534000
H 27.473000 51.147281 19.451000
H 26.127000 51.737281 19.087000
O 37.048000 1.473719 66.123000
H 37.389000 1.989719 66.853000
H 37.817000 1.034719 65.760000
O 3.660000 45.711281 13.171000
H 4.338000 45.210281 13.623000
H 3.651000 46.558281 13.616000
O 12.471000 52.620281 21.951000
H 13.340000 52.470281 21.578000
H 12.630000 52.747281 22.886000
O 17.103000 45.157281 11.851000
H 16.488000 44.422281 11.849000
H 16.616000 45.875281 12.254000
O 39.346000 0.197719 65.468000
H 39.368000 -0.720281 65.197000
H 40.125000 0.583719 65.068000
O 0.221000 51.018281 67.000000
H 0.611000 50.365281 66.419000
H 0.190000 50.590281 67.856000
O 16.055000 41.852281 9.241000
H 16.987000 41.640281 9.195000
H 15.929000 42.188281 10.128000
O 4.850000 53.110281 9.746000
H 5.377000 52.969281 8.960000
H 4.913000 54.051281 9.912000
O 47.819000 1.199719 67.853000
H 46.911000 1.307719 68.137000
H 48.033000 2.022719 67.414000
O 8.832000 50.563281 20.966000
H 9.064000 49.979281 20.244000
H 9.632000 50.629281 21.488000
O 15.262000 50.435281 13.570000
H 14.349000 50.558281 13.309000
H 15.656000 49.952281 12.844000
O 6.936000 28.874281 22.275000
H 7.183000 29.331281 21.471000
H 7.769000 28.668281 22.700000
O 40.179000 0.790719 19.131000
H 39.302000 0.610719 19.471000
H 40.396000 1.657719 19.474000
O 14.018000 51.019281 19.121000
H 13.833000 50.549281 18.308000
H 13.300000 51.647281 19.204000
O 0.075000 52.231281 14.662000
H 0.412000 52.016281 15.532000
H 0.654000 52.924281 14.345000
O 21.064000 28.019281 18.224000
H 20.651000 27.287281 17.766000
H 21.907000 27.674281 18.518000
O 7.585000 46.981281 18.724000
H 7.704000 46.037281 18.830000
H 6.811000 47.185281 19.248000
O 48.224000 0.198719 16.638000
H 48.078000 0.067719 15.701000
H 47.487000 -0.242281 17.060000
O 6.463000 52.325281 14.829000
H 5.526000 52.175281 14.707000
H 6.856000 51.454281 14.773000
O 24.272000 42.419281 15.740000
H 24.379000 43.227281 15.238000
H 23.377000 42.137281 15.553000
O 40.164000 0.912719 22.125000
H 39.389000 0.354719 22.052000
H 40.837000 0.453719 21.621000
O 7.275000 49.679281 14.618000
H 8.224000 49.553281 14.609000
H 6.984000 49.256281 15.426000
O 3.386000 48.121281 24.572000
H 4.025000 48.828281 24.657000
H 2.586000 48.473281 24.963000
O 20.793000 28.198281 22.531000
H 20.153000 28.834281 22.210000
H 21.622000 28.676281 22.540000
O 41.503000 1.704719 24.224000
H 40.975000 1.709719 23.425000
H 42.122000 0.985719 24.098000
O 16.521000 48.094281 18.632000
H 17.138000 48.794281 18.846000
H 16.244000 47.750281 19.482000
O 3.543000 52.070281 18.641000
H 4.306000 51.497281 18.563000
H 3.857000 52.927281 18.353000
O 6.024000 46.299281 11.946000
H 6.215000 47.225281 12.100000
H 5.163000 46.163281 12.342000
O 5.930000 29.456281 66.813000
H 6.285000 28.568281 66.853000
H 5.436000 29.480281 65.993000
O 11.862000 46.569281 17.798000
H 11.093000 47.108281 17.613000
H 11.573000 45.672281 17.626000
O 4.918000 47.011281 20.064000
H 5.116000 46.927281 20.997000
H 4.258000 46.338281 19.897000
O 8.901000 45.739281 15.949000
H 8.427000 45.728281 16.780000
H 8.385000 45.177281 15.371000
O 5.619000 47.616281 22.880000
H 5.687000 48.384281 22.312000
H 4.730000 47.656281 23.232000
O 6.800000 47.372281 66.445000
H 6.037000 47.754281 66.012000
H 7.549000 47.814281 66.046000
O 17.409000 27.847281 22.450000
H 17.882000 28.679281 22.435000
H 17.710000 27.386281 21.667000
O 44.533000 2.481719 18.745000
H 44.462000 2.017719 19.579000
H 44.149000 1.883719 18.104000
O 13.227000 47.404281 14.295000
H 13.579000 47.141281 15.145000
H 12.277000 47.365281 14.406000
O 4.009000 48.267281 14.315000
H 3.880000 48.297281 15.263000
H 3.878000 49.170281 14.026000
O 36.345000 0.952719 22.050000
H 35.821000 0.281719 22.488000
H 36.754000 0.495719 21.315000
O 46.254000 0.053719 21.533000
H 46.100000 -0.815281 21.903000
H 46.319000 -0.095281 20.590000
O 2.139000 45.794281 24.033000
H 2.692000 46.486281 24.393000
H 1.566000 46.243281 23.412000
O 10.919000 52.600281 15.341000
H 10.461000 53.325281 15.766000
H 11.715000 52.995281 14.985000
O 36.448000 3.353719 23.425000
H 36.560000 2.535719 22.942000
H 36.930000 4.002719 22.913000
O 39.989000 1.194719 16.554000
H 39.674000 2.074719 16.347000
H 40.105000 1.197719 17.504000
O 5.706000 39.954281 23.155000
H 5.280000 39.270281 22.639000
H 5.017000 40.600281 23.312000
O 10.197000 26.382281 20.461000
H 10.828000 26.927281 19.990000
H 9.977000 26.890281 21.242000
O 6.019000 43.754281 23.231000
H 5.593000 43.432281 24.026000
H 6.359000 42.968281 22.805000
O 19.957000 48.062281 13.674000
H 20.561000 47.588281 14.247000
H 19.087000 47.795281 13.970000
O 5.980000 50.263281 21.654000
H 6.743000 50.804281 21.453000
H 5.345000 50.874281 22.029000
O 13.578000 49.724281 16.592000
H 13.775000 48.822281 16.339000
H 12.683000 49.869281 16.287000
O 42.929000 0.385719 10.451000
H 43.613000 -0.103281 10.907000
H 42.111000 0.063719 10.829000
O 33.945000 2.677719 21.566000
H 34.055000 3.628719 21.565000
H 34.826000 2.334719 21.715000
O 30.111000 46.857281 21.293000
H 30.139000 46.454281 20.425000
H 29.206000 46.741281 21.582000
O 10.018000 48.749281 18.624000
H 9.253000 48.222281 18.393000
H 10.219000 49.243281 17.828000
O 37.414000 2.190719 15.389000
H 37.589000 1.291719 15.110000
H 38.266000 2.624719 15.346000
O 13.448000 29.102281 15.563000
H 12.738000 29.270281 16.182000
H 14.050000 28.530281 16.039000
O 9.422000 46.225281 12.448000
H 9.000000 45.949281 11.634000
H 10.068000 45.542281 12.627000
O 20.876000 46.810281 16.995000
H 21.097000 45.897281 16.814000
H 19.925000 46.852281 16.896000
O 7.266000 52.644281 20.214000
H 7.984000 52.093281 20.527000
H 6.947000 52.201281 19.428000
O 21.705000 44.356281 17.034000
H 22.517000 44.479281 17.526000
H 21.310000 43.571281 17.414000
O 9.290000 48.812281 66.284000
H 9.721000 48.775281 67.138000
H 10.002000 48.716281 65.652000
O 1.108000 48.071281 11.757000
H 0.981000 49.018281 11.810000
H 2.016000 47.965281 11.475000
O 9.875000 34.669281 18.325000
H 10.560000 34.081281 18.007000
H 10.071000 34.787281 19.254000
O 10.901000 49.875281 16.226000
H 10.719000 50.733281 15.845000
H 10.715000 49.255281 15.521000
O 31.432000 1.614719 65.662000
H 31.147000 1.104719 64.904000
H 32.191000 1.138719 66.000000
O 5.332000 49.884281 65.360000
H 5.329000 50.523281 64.647000
H 4.667000 50.203281 65.970000
O 13.763000 52.762281 14.593000
H 13.998000 52.760281 13.666000
H 14.502000 52.339281 15.030000
O 26.115000 31.953281 21.972000
H 25.862000 32.310281 21.121000
H 25.845000 31.035281 21.938000
O 17.610000 48.198281 67.313000
H 17.445000 47.358281 66.886000
H 17.955000 47.965281 68.175000
O 2.806000 45.731281 16.225000
H 2.340000 46.228281 15.552000
H 2.157000 45.113281 16.560000
O 17.447000 48.322281 14.918000
H 17.592000 47.572281 15.495000
H 17.267000 49.051281 15.512000
O 15.138000 50.571281 22.021000
H 15.368000 49.918281 22.683000
H 15.189000 50.098281 21.191000
O 15.903000 46.805281 20.790000
H 15.261000 46.781281 21.500000
H 16.719000 46.511281 21.195000
O 18.722000 37.833281 24.607000
H 19.544000 37.944281 24.129000
H 18.582000 38.674281 25.042000
O 26.573000 37.228281 14.843000
H 26.127000 36.602281 14.272000
H 27.421000 36.824281 15.027000
O 23.406000 43.352281 67.200000
H 22.613000 43.827281 66.951000
H 23.900000 43.973281 67.735000
O 21.841000 45.376281 66.840000
H 22.193000 45.650281 65.993000
H 22.353000 45.866281 67.483000
O 23.649000 38.929281 13.365000
H 23.355000 38.628281 12.504000
H 24.175000 39.707281 13.180000
O 0.753000 48.327281 65.580000
H 0.221000 47.552281 65.397000
H 0.479000 48.966281 64.922000
O 20.386000 37.731281 10.546000
H 21.341000 37.798281 10.533000
H 20.135000 38.041281 11.416000
O 48.584000 2.602719 17.738000
H 48.504000 1.688719 17.465000
H 47.714000 2.973719 17.592000
O 21.195000 34.501281 67.787000
H 21.313000 33.554281 67.858000
H 20.283000 34.648281 68.038000
O -0.051000 33.996281 13.837000
H 0.406000 34.563281 13.216000
H 0.159000 33.107281 13.549000
O 26.740000 30.464281 8.713000
H 26.729000 30.430281 9.670000
H 25.900000 30.088281 8.450000
O 3.404000 31.106281 65.694000
H 3.832000 30.780281 64.903000
H 2.535000 30.704281 65.680000
O 23.225000 48.957281 12.609000
H 23.589000 48.269281 12.052000
H 22.958000 48.503281 13.409000
O 26.509000 40.482281 9.097000
H 26.911000 40.718281 8.261000
H 25.583000 40.699281 8.988000
O 13.337000 30.961281 11.377000
H 13.498000 31.817281 11.774000
H 13.362000 30.347281 12.110000
O 24.907000 39.917281 24.988000
H 24.248000 40.035281 25.672000
H 24.428000 39.524281 24.258000
O 24.852000 44.181281 9.639000
H 25.694000 43.740281 9.749000
H 24.861000 44.881281 10.292000
O 53.614000 0.611719 12.914000
H 53.419000 -0.319281 13.024000
H 54.368000 0.767719 13.482000
O 21.528000 32.063281 24.666000
H 21.991000 31.599281 23.968000
H 20.739000 32.403281 24.245000
O 23.114000 28.595281 65.406000
H 23.569000 28.560281 64.564000
H 23.815000 28.597281 66.058000
O 29.863000 52.543281 9.909000
H 30.694000 52.693281 9.458000
H 29.196000 52.788281 9.268000
O 0.855000 38.261281 15.841000
H 0.266000 37.556281 15.571000
H 1.733000 37.891281 15.743000
O 29.023000 32.233281 67.852000
H 28.275000 32.161281 68.446000
H 28.884000 33.060281 67.390000
O 22.310000 32.798281 10.773000
H 22.192000 33.692281 11.096000
H 22.527000 32.905281 9.847000
O 21.776000 46.392281 10.406000
H 21.160000 45.740281 10.741000
H 21.354000 47.233281 10.583000
O 27.313000 38.540281 67.675000
H 27.386000 39.245281 68.318000
H 26.409000 38.236281 67.753000
O 29.957000 40.625281 9.144000
H 29.879000 41.313281 8.483000
H 29.608000 39.842281 8.718000
O 20.803000 35.124281 11.890000
H 19.975000 34.887281 11.472000
H 20.889000 36.064281 11.734000
O 0.960000 28.683281 12.099000
H 1.712000 29.021281 11.612000
H 0.456000 28.192281 11.450000
O 19.594000 34.751281 14.256000
H 20.059000 34.630281 13.428000
H 19.473000 33.864281 14.595000
O 24.943000 36.928281 10.428000
H 25.558000 37.661281 10.406000
H 25.257000 36.330281 9.749000
O 11.676000 27.422281 67.402000
H 11.807000 26.505281 67.645000
H 11.903000 27.459281 66.473000
O 3.143000 41.516281 14.832000
H 2.230000 41.441281 14.555000
H 3.116000 41.392281 15.781000
O 23.716000 31.440281 12.708000
H 24.025000 32.062281 13.367000
H 23.337000 31.987281 12.020000
O 9.903000 35.685281 65.362000
H 9.596000 35.424281 64.493000
H 10.671000 35.136281 65.520000
O 19.026000 29.310281 14.379000
H 19.195000 28.429281 14.044000
H 19.847000 29.781281 14.239000
O 26.923000 28.093281 11.266000
H 27.081000 29.030281 11.144000
H 26.593000 27.792281 10.420000
O 18.624000 30.348281 11.352000
H 19.224000 31.061281 11.573000
H 19.000000 29.578281 11.779000
O 24.353000 44.778281 13.938000
H 25.127000 44.530281 13.432000
H 24.115000 45.643281 13.605000
O 27.435000 39.029281 12.830000
H 27.630000 39.824281 13.327000
H 27.168000 38.391281 13.492000
O 4.721000 40.581281 10.429000
H 5.365000 41.146281 10.001000
H 3.939000 40.651281 9.881000
O 29.218000 44.756281 9.861000
H 30.108000 44.568281 10.157000
H 28.904000 45.434281 10.459000
O 21.408000 44.801281 14.338000
H 21.285000 44.375281 15.186000
H 22.229000 44.439281 14.004000
O 26.783000 41.122281 14.775000
H 27.462000 40.734281 15.328000
H 25.962000 40.783281 15.130000
O 22.933000 39.991281 66.797000
H 23.086000 40.453281 67.621000
H 22.938000 39.064281 67.036000
O 28.925000 36.277281 15.329000
H 28.828000 36.023281 16.247000
H 29.211000 35.477281 14.888000
O 28.544000 34.707281 66.658000
H 29.071000 35.037281 65.930000
H 28.808000 35.242281 67.407000
O 25.505000 35.736281 12.890000
H 26.096000 35.002281 12.718000
H 25.260000 36.055281 12.021000
O 26.849000 41.907281 66.099000
H 26.997000 41.709281 67.024000
H 26.181000 41.280281 65.823000
O 23.640000 40.273281 8.988000
H 23.249000 40.251281 8.115000
H 23.363000 41.112281 9.355000
O 22.768000 29.120281 11.401000
H 22.950000 28.270281 11.803000
H 23.270000 29.745281 11.924000
O 0.644000 36.963281 65.805000
H 0.499000 37.819281 66.209000
H 1.169000 36.481281 66.444000
O 26.781000 30.903281 11.391000
H 26.008000 31.241281 11.843000
H 27.336000 31.671281 11.257000
O 27.151000 42.776281 10.168000
H 26.979000 41.918281 9.779000
H 28.040000 42.993281 9.887000
O 28.905000 28.516281 66.285000
H 29.526000 29.241281 66.222000
H 29.372000 27.841281 66.778000
O 3.346000 35.250281 22.345000
H 2.442000 35.185281 22.035000
H 3.315000 34.930281 23.246000
O 22.832000 38.401281 10.671000
H 23.079000 39.092281 10.056000
H 23.540000 37.760281 10.608000
O 28.823000 35.781281 11.056000
H 28.580000 36.705281 11.108000
H 29.756000 35.765281 11.272000
O 47.788000 2.537719 10.348000
H 47.568000 2.341719 9.437000
H 48.089000 3.445719 10.332000
O 0.464000 39.295281 66.981000
H -0.063000 39.263281 67.779000
H 1.367000 39.203281 67.286000
O 0.283000 30.856281 65.790000
H 0.298000 31.417281 65.015000
H -0.173000 31.374281 66.453000
O 23.844000 38.931281 22.719000
H 24.232000 39.745281 22.399000
H 24.473000 38.252281 22.473000
O 15.894000 36.140281 16.990000
H 16.065000 36.987281 16.577000
H 15.866000 35.519281 16.263000
O 23.863000 32.664281 66.088000
H 23.319000 32.825281 65.317000
H 24.448000 33.420281 66.132000
O 15.213000 31.136281 15.659000
H 15.724000 30.894281 14.887000
H 14.584000 30.423281 15.764000
O 2.253000 38.644281 24.089000
H 1.458000 38.150281 24.292000
H 2.772000 38.605281 24.892000
O 24.769000 42.026281 19.002000
H 24.419000 42.908281 18.877000
H 24.787000 41.647281 18.123000
O 22.664000 37.336281 67.564000
H 22.405000 36.416281 67.628000
H 22.261000 37.753281 68.325000
O 21.635000 48.660281 19.284000
H 21.504000 48.030281 18.576000
H 22.193000 49.338281 18.901000
O 26.190000 44.184281 12.295000
H 26.850000 44.124281 12.986000
H 26.543000 43.655281 11.580000
O 17.255000 36.603281 67.136000
H 17.701000 36.630281 66.289000
H 17.888000 36.193281 67.727000
O 25.052000 39.191281 16.094000
H 25.532000 38.482281 15.666000
H 24.188000 39.178281 15.682000
O 16.401000 38.573281 15.876000
H 17.099000 39.160281 16.168000
H 16.798000 38.057281 15.175000
O 19.048000 40.101281 17.229000
H 19.650000 39.947281 16.500000
H 18.976000 39.251281 17.663000
O 21.063000 39.381281 23.577000
H 20.765000 39.348281 22.668000
H 21.930000 38.974281 23.561000
O 58.436000 0.564719 23.271000
H 58.078000 -0.193281 22.809000
H 59.379000 0.519719 23.111000
O 4.117000 38.982281 17.707000
H 3.644000 38.761281 18.510000
H 4.862000 38.382281 17.695000
O 28.118000 33.086281 10.705000
H 28.280000 33.974281 11.025000
H 28.966000 32.794281 10.371000
O 0.781000 34.644281 21.414000
H -0.078000 34.221281 21.418000
H 1.317000 34.093281 20.844000
O 18.409000 41.397281 20.684000
H 18.425000 40.455281 20.856000
H 19.117000 41.538281 20.056000
O 25.477000 28.190281 13.627000
H 25.964000 28.210281 12.803000
H 24.622000 27.831281 13.391000
O 26.548000 29.601281 19.358000
H 27.156000 29.369281 20.060000
H 26.605000 28.872281 18.741000
O 30.209000 43.943281 16.667000
H 29.415000 44.074281 16.150000
H 30.115000 43.062281 17.031000
O 25.107000 41.243281 21.636000
H 24.966000 41.379281 20.699000
H 24.723000 42.016281 22.051000
O 17.825000 37.006281 14.314000
H 18.450000 36.281281 14.340000
H 17.151000 36.720281 13.698000
O 0.571000 45.464281 18.996000
H 1.488000 45.308281 19.221000
H 0.482000 45.127281 18.105000
O 24.308000 46.535281 11.132000
H 23.392000 46.500281 10.859000
H 24.745000 47.039281 10.445000
O 22.603000 47.773281 21.822000
H 23.095000 48.545281 22.102000
H 22.278000 48.000281 20.951000
O 29.351000 39.359281 22.178000
H 28.938000 38.536281 22.439000
H 29.777000 39.160281 21.344000
O 21.361000 36.414281 16.000000
H 20.755000 35.714281 15.759000
H 20.985000 36.793281 16.795000
O 21.488000 30.976281 14.172000
H 21.695000 30.743281 15.077000
H 22.334000 31.197281 13.782000
O 27.821000 41.741281 21.842000
H 28.233000 40.903281 22.052000
H 26.882000 41.562281 21.874000
O 28.051000 30.745281 17.272000
H 27.586000 31.442281 16.811000
H 27.500000 30.548281 18.030000
O 22.474000 30.025281 16.619000
H 22.139000 29.295281 17.141000
H 22.426000 30.781281 17.205000
O 16.247000 33.778281 12.776000
H 16.916000 33.634281 12.108000
H 16.114000 34.726281 12.781000
O 28.917000 29.589281 20.877000
H 29.251000 29.530281 21.772000
H 29.374000 28.894281 20.404000
O 6.179000 37.230281 18.682000
H 6.083000 36.704281 19.476000
H 5.701000 36.742281 18.012000
O 27.633000 39.878281 19.371000
H 27.616000 40.555281 20.047000
H 27.506000 39.058281 19.848000
O 3.562000 44.252281 22.085000
H 3.056000 44.740281 22.735000
H 4.389000 44.054281 22.524000
O 27.130000 33.604281 13.599000
H 28.060000 33.644281 13.818000
H 26.704000 33.322281 14.408000
O 25.867000 34.691281 66.347000
H 26.780000 34.645281 66.629000
H 25.507000 35.442281 66.819000
O 24.830000 29.324281 21.923000
H 25.123000 28.961281 21.087000
H 24.829000 28.577281 22.522000
O 25.691000 35.707281 17.155000
H 26.522000 35.665281 17.629000
H 25.928000 36.020281 16.282000
O 50.851000 2.812719 16.653000
H 50.024000 2.743719 17.129000
H 50.595000 2.847719 15.731000
O 24.067000 33.745281 14.214000
H 24.570000 34.465281 13.835000
H 23.576000 34.146281 14.931000
O 22.920000 37.846281 20.136000
H 23.287000 38.241281 20.927000
H 23.450000 38.201281 19.422000
O 20.697000 37.546281 18.342000
H 20.188000 36.862281 18.778000
H 21.506000 37.604281 18.851000
O 20.626000 40.860281 65.845000
H 20.771000 40.526281 64.960000
H 21.309000 40.446281 66.373000
O 28.586000 36.335281 18.215000
H 29.139000 36.802281 18.842000
H 28.725000 35.409281 18.416000
O 29.106000 36.716281 23.673000
H 28.454000 37.326281 24.018000
H 29.816000 36.735281 24.315000
O 23.038000 35.332281 21.182000
H 22.885000 36.125281 20.668000
H 23.387000 35.649281 22.014000
O 0.559000 32.274281 23.477000
H -0.373000 32.432281 23.627000
H 0.701000 32.524281 22.564000
O 6.678000 33.086281 11.196000
H 6.814000 32.633281 10.364000
H 5.908000 33.635281 11.047000
O 26.772000 37.767281 20.841000
H 26.076000 37.769281 20.183000
H 27.028000 36.848281 20.916000
O 22.281000 35.186281 65.287000
H 21.701000 34.805281 64.627000
H 21.987000 34.804281 66.114000
O 23.116000 34.429281 16.711000
H 22.579000 35.174281 16.441000
H 23.877000 34.823281 17.137000
O 21.653000 38.991281 15.100000
H 22.344000 39.094281 14.446000
H 21.788000 38.113281 15.455000
O 19.568000 46.676281 19.554000
H 19.069000 47.491281 19.605000
H 19.281000 46.269281 18.737000
O 22.154000 41.229281 19.905000
H 23.026000 41.505281 19.623000
H 21.889000 41.889281 20.546000
O 24.167000 36.324281 23.328000
H 23.698000 36.195281 24.152000
H 24.860000 35.663281 23.340000
O 22.418000 30.922281 22.443000
H 23.260000 30.639281 22.087000
H 22.082000 31.544281 21.797000
O 7.392000 40.114281 67.527000
H 7.674000 39.979281 66.622000
H 6.444000 40.235281 67.468000
O 18.519000 42.252281 67.009000
H 17.749000 42.020281 66.491000
H 19.243000 41.798281 66.578000
O 31.659000 1.831719 20.117000
H 32.349000 1.881719 20.779000
H 31.424000 2.742719 19.946000
O 0.560000 42.096281 13.208000
H 0.991000 42.660281 12.566000
H 0.426000 41.267281 12.749000
O 27.199000 38.223281 10.236000
H 26.933000 39.067281 9.872000
H 27.321000 38.391281 11.170000
O 15.083000 33.568281 23.642000
H 15.230000 33.861281 24.541000
H 15.899000 33.133281 23.395000
O 3.759000 41.687281 20.364000
H 3.317000 41.993281 21.156000
H 3.259000 40.918281 20.092000
O 27.321000 34.241281 19.167000
H 27.064000 34.834281 19.872000
H 26.633000 33.576281 19.150000
O 7.712000 39.735281 19.565000
H 7.122000 40.475281 19.421000
H 7.249000 38.984281 19.195000
O 26.171000 31.013281 66.278000
H 26.650000 31.384281 67.020000
H 25.422000 31.597281 66.161000
O 23.581000 44.712281 18.935000
H 24.099000 45.450281 18.614000
H 22.929000 45.110281 19.513000
O 25.025000 38.707281 18.676000
H 25.815000 39.226281 18.831000
H 24.949000 38.664281 17.723000
O 15.261000 33.827281 15.304000
H 15.327000 32.961281 15.706000
H 15.867000 33.794281 14.564000
O 16.502000 31.669281 18.047000
H 16.678000 30.960281 18.666000
H 16.060000 31.242281 17.313000
O 28.198000 43.408281 14.462000
H 27.573000 42.684281 14.510000
H 28.981000 43.024281 14.067000
O 3.911000 28.115281 24.941000
H 4.467000 27.543281 24.413000
H 3.424000 28.634281 24.302000
O 25.440000 32.278281 19.153000
H 25.674000 31.352281 19.091000
H 24.610000 32.348281 18.681000
O 28.430000 46.309281 14.109000
H 28.492000 46.381281 13.157000
H 28.204000 45.393281 14.267000
O 27.298000 46.953281 21.873000
H 27.109000 47.624281 21.218000
H 26.816000 46.182281 21.574000
O 2.558000 39.148281 19.933000
H 3.018000 38.885281 20.730000
H 1.961000 38.422281 19.750000
O 20.067000 39.175281 20.983000
H 20.945000 39.438281 20.707000
H 19.946000 38.306281 20.600000
O 22.823000 32.260281 18.306000
H 22.750000 33.028281 17.739000
H 22.445000 32.540281 19.139000
O 26.292000 44.728281 20.527000
H 27.123000 44.320281 20.282000
H 25.801000 44.783281 19.707000
O 28.794000 40.031281 16.294000
H 28.626000 39.853281 17.220000
H 29.495000 39.423281 16.057000
O 32.161000 3.508719 23.502000
H 32.081000 2.976719 24.293000
H 32.834000 3.067719 22.983000
O 28.970000 32.281281 20.646000
H 28.049000 32.439281 20.437000
H 29.053000 31.327281 20.660000
O 13.746000 39.211281 16.837000
H 13.442000 39.976281 16.348000
H 14.626000 39.043281 16.499000
O 26.359000 48.164281 14.517000
H 26.857000 48.756281 13.953000
H 26.889000 47.368281 14.557000
O 16.635000 52.538281 65.501000
H 16.959000 53.142281 64.833000
H 16.837000 52.967281 66.331000
O 24.396000 28.936281 9.117000
H 23.795000 28.524281 8.497000
H 23.895000 29.002281 9.930000
O 32.214000 1.601719 14.887000
H 32.378000 1.578719 15.830000
H 32.518000 2.466719 14.612000
O 24.978000 51.016281 12.148000
H 25.578000 50.850281 12.875000
H 24.319000 50.326281 12.219000
O 51.300000 1.987719 11.834000
H 50.671000 1.312719 11.577000
H 52.091000 1.501719 12.068000
O 29.366000 48.413281 18.525000
H 29.938000 48.747281 17.833000
H 29.835000 47.658281 18.880000
O 21.694000 52.184281 16.661000
H 21.875000 53.124281 16.653000
H 20.824000 52.111281 17.052000
O 26.885000 45.837281 66.189000
H 26.246000 46.542281 66.292000
H 26.419000 45.160281 65.698000
O 51.203000 3.228719 65.301000
H 51.756000 3.797719 64.764000
H 51.816000 2.776719 65.881000
O 21.882000 51.052281 13.598000
H 22.058000 50.326281 12.999000
H 22.559000 50.978281 14.270000
O 24.868000 46.934281 18.199000
H 25.585000 47.406281 18.623000
H 24.434000 47.592281 17.657000
O 1.321000 48.729281 16.720000
H 1.249000 48.393281 15.826000
H 2.092000 48.290281 17.079000
O 21.571000 43.118281 21.768000
H 22.386000 43.018281 22.259000
H 21.635000 43.988281 21.372000
O 29.945000 50.171281 23.765000
H 29.908000 49.749281 22.907000
H 29.052000 50.105281 24.103000
O 57.880000 1.308719 65.897000
H 58.056000 0.760719 65.132000
H 58.455000 0.960719 66.579000
O 53.234000 1.098719 9.068000
H 53.489000 0.182719 9.182000
H 53.789000 1.415719 8.356000
O 24.180000 43.766281 22.649000
H 24.414000 44.030281 23.539000
H 24.698000 44.341281 22.085000
O 20.736000 50.434281 24.319000
H 21.180000 49.769281 24.845000
H 19.804000 50.289281 24.485000
O 57.081000 0.430719 12.096000
H 56.386000 1.002719 11.769000
H 56.824000 -0.446281 11.813000
O 55.217000 1.310719 14.988000
H 54.635000 1.671719 15.656000
H 56.015000 1.835719 15.055000
O 1.057000 47.269281 14.457000
H 0.233000 46.785281 14.510000
H 1.155000 47.476281 13.528000
O 27.617000 49.490281 10.048000
H 27.518000 49.607281 10.993000
H 26.769000 49.154281 9.757000
O 29.967000 28.176281 9.454000
H 29.553000 27.421281 9.035000
H 29.619000 28.933281 8.984000
O 0.330000 53.161281 23.373000
H 0.334000 52.211281 23.255000
H 0.933000 53.488281 22.705000
O 21.789000 50.278281 9.092000
H 21.048000 49.921281 9.583000
H 22.345000 50.683281 9.758000
O 18.221000 29.160281 16.933000
H 19.090000 28.983281 17.292000
H 18.371000 29.296281 15.997000
O 34.612000 0.639719 64.988000
H 35.452000 0.996719 65.275000
H 34.143000 0.446719 65.800000
O 27.485000 52.292281 14.391000
H 27.398000 52.804281 13.587000
H 28.429000 52.186281 14.507000
O 2.327000 52.381281 9.038000
H 3.202000 52.765281 9.094000
H 2.069000 52.504281 8.124000
O 28.747000 47.075281 11.272000
H 28.380000 47.693281 10.639000
H 29.605000 47.440281 11.492000
O 49.354000 0.494719 11.102000
H 48.777000 1.096719 10.632000
H 48.783000 0.060719 11.736000
O 25.122000 43.827281 65.125000
H 24.416000 43.746281 65.767000
H 25.685000 43.071281 65.292000
O 23.917000 52.046281 9.769000
H 24.614000 51.841281 9.146000
H 24.324000 51.938281 10.628000
O 19.785000 47.927281 22.832000
H 19.752000 48.291281 23.716000
H 20.629000 48.217281 22.485000
O 3.140000 27.312281 67.441000
H 3.360000 27.475281 66.524000
H 3.540000 28.040281 67.917000
O 0.730000 41.736281 66.192000
H 0.617000 40.788281 66.268000
H 0.022000 42.016281 65.612000
O 26.557000 27.017281 65.505000
H 27.342000 27.489281 65.782000
H 26.822000 26.097281 65.495000
O 25.424000 30.179281 15.660000
H 25.721000 29.753281 14.856000
H 24.470000 30.197281 15.583000
O 55.542000 2.136719 10.375000
H 54.790000 1.771719 9.910000
H 56.051000 2.580719 9.697000
O 20.183000 32.262281 12.305000
H 20.650000 31.809281 13.007000
H 20.861000 32.474281 11.664000
O 25.198000 48.194281 9.278000
H 24.410000 48.455281 8.803000
H 25.645000 47.588281 8.688000
O 22.082000 46.025281 24.123000
H 22.136000 46.528281 23.311000
H 21.300000 45.482281 24.018000
O 0.729000 50.598281 11.629000
H 1.404000 51.073281 12.113000
H 0.511000 51.173281 10.895000
O 28.290000 52.831281 67.643000
H 27.734000 52.236281 68.145000
H 28.926000 52.259281 67.213000
O 27.466000 49.577281 24.433000
H 27.190000 49.624281 25.349000
H 27.443000 48.644281 24.223000
O 59.157000 2.618719 11.640000
H 58.695000 3.452719 11.718000
H 58.508000 1.960719 11.890000
O 53.500000 1.759719 16.962000
H 52.772000 2.376719 16.885000
H 53.900000 1.964719 17.807000
O 17.365000 52.674281 13.276000
H 17.972000 51.951281 13.433000
H 16.521000 52.250281 13.121000
O 18.112000 45.990281 22.020000
H 18.617000 46.636281 22.515000
H 18.756000 45.567281 21.452000
O 19.906000 51.111281 21.044000
H 20.060000 50.739281 21.912000
H 19.382000 50.451281 20.589000
O 25.273000 28.686281 67.167000
H 25.615000 29.421281 66.658000
H 25.520000 27.910281 66.663000
O 52.533000 2.698719 21.371000
H 51.954000 3.398719 21.672000
H 52.207000 2.475719 20.499000
O 25.863000 28.029281 17.180000
H 26.026000 27.342281 16.534000
H 25.887000 28.842281 16.677000
O 17.939000 26.741281 66.546000
H 17.281000 27.176281 66.003000
H 18.648000 26.529281 65.939000
O 30.051000 49.921281 20.984000
H 30.286000 49.019281 20.766000
H 29.622000 50.254281 20.195000
O 30.166000 28.977281 16.296000
H 29.399000 29.301281 16.769000
H 29.924000 28.093281 16.023000
O 28.878000 42.562281 24.371000
H 28.193000 42.333281 24.999000
H 28.502000 42.348281 23.517000
O 26.258000 51.373281 22.217000
H 26.427000 51.208281 21.289000
H 26.810000 50.740281 22.677000
O 54.778000 1.281719 22.431000
H 54.095000 1.740719 21.942000
H 54.737000 0.380719 22.112000
O 3.588000 51.103281 14.267000
H 3.409000 51.669281 13.515000
H 3.128000 51.521281 14.995000
O 22.821000 52.176281 21.042000
H 21.874000 52.216281 20.911000
H 23.161000 51.816281 20.223000
O 49.501000 0.506719 21.049000
H 49.918000 0.782719 21.865000
H 49.790000 -0.397281 20.925000
O 18.985000 51.341281 16.801000
H 19.246000 51.057281 15.925000
H 18.290000 51.981281 16.648000
O 28.086000 50.203281 13.133000
H 28.896000 50.512281 12.729000
H 27.819000 50.916281 13.713000
O 27.915000 32.275281 24.007000
H 27.408000 32.354281 23.200000
H 27.504000 31.550281 24.479000
O 23.452000 51.025281 18.602000
H 23.960000 50.354281 18.147000
H 23.116000 51.587281 17.903000
O 24.208000 49.063281 16.286000
H 24.894000 48.695281 15.729000
H 24.211000 49.999281 16.084000
O 22.429000 47.345281 14.505000
H 22.329000 47.707281 15.385000
H 22.177000 46.426281 14.593000
O 28.462000 43.281281 19.752000
H 28.342000 42.701281 20.504000
H 29.318000 43.686281 19.896000
O 53.703000 3.470719 12.867000
H 52.749000 3.402719 12.890000
H 54.009000 2.563719 12.851000
O 26.862000 48.013281 19.497000
H 26.549000 48.916281 19.446000
H 27.702000 48.024281 19.038000
O 3.681000 47.795281 17.581000
H 3.450000 46.935281 17.229000
H 3.993000 47.615281 18.467000
O 24.795000 51.832281 15.456000
H 25.564000 51.815281 14.886000
H 24.479000 52.735281 15.407000
O 55.234000 0.982719 65.452000
H 56.047000 1.329719 65.821000
H 55.471000 0.707719 64.566000
O 53.393000 2.506719 66.656000
H 54.013000 1.959719 66.173000
H 53.595000 3.400719 66.380000
O 57.316000 2.941719 15.181000
H 58.226000 2.734719 15.396000
H 57.377000 3.641719 14.532000
O 23.843000 50.379281 22.798000
H 23.148000 50.687281 22.217000
H 24.623000 50.852281 22.511000
O 24.810000 27.062281 23.426000
H 25.538000 26.957281 24.039000
H 24.430000 26.186281 23.354000
O 21.709000 41.567281 15.083000
H 21.748000 40.610281 15.097000
H 20.962000 41.768281 14.518000
O 2.248000 51.535281 21.018000
H 1.470000 50.994281 20.884000
H 2.511000 51.799281 20.136000
O 50.911000 1.449719 23.290000
H 50.977000 2.101719 23.988000
H 51.665000 1.624719 22.727000
O 26.346000 49.802281 67.000000
H 26.473000 50.052281 67.915000
H 25.590000 50.313281 66.713000
O 20.881000 52.493281 65.716000
H 21.219000 53.287281 65.303000
H 20.936000 51.825281 65.033000
O 55.436000 1.961719 19.545000
H 55.969000 1.267719 19.158000
H 55.765000 2.045719 20.440000
O 49.812000 3.195719 14.041000
H 48.870000 3.343719 13.960000
H 50.019000 2.581719 13.336000
O 32.988000 1.678719 17.382000
H 33.920000 1.618719 17.593000
H 32.555000 1.769719 18.231000
O 21.692000 45.461281 20.755000
H 22.267000 46.131281 21.125000
H 20.916000 45.942281 20.467000
O 5.699000 50.870281 18.457000
H 5.696000 50.438281 19.311000
H 6.045000 50.211281 17.856000
O 18.883000 49.408281 19.120000
H 19.816000 49.194281 19.086000
H 18.758000 50.046281 18.418000
O 58.290000 2.562719 21.069000
H 58.090000 3.370719 21.542000
H 58.271000 1.880719 21.741000
O 23.723000 27.623281 18.621000
H 24.455000 28.019281 18.148000
H 24.109000 26.874281 19.076000
O 20.607000 48.964281 11.042000
H 20.681000 48.627281 11.935000
H 19.721000 49.322281 10.993000
O 19.169000 50.770281 14.020000
H 19.344000 49.831281 14.089000
H 19.986000 51.143281 13.690000
O 2.602000 27.477281 14.411000
H 3.533000 27.462281 14.189000
H 2.166000 27.731281 13.598000
O 0.963000 51.544281 17.073000
H 0.915000 50.590281 17.121000
H 1.757000 51.769281 17.558000
O 23.923000 52.799281 67.970000
H 23.798000 52.652281 67.032000
H 23.067000 53.090281 68.283000
O -1.581000 3.158719 16.028000
H -1.800000 2.814719 16.894000
H -0.910000 2.562719 15.696000
O 56.613000 0.053719 18.098000
H 56.134000 0.146719 17.274000
H 57.517000 0.278719 17.876000
O 7.467000 44.349281 17.945000
H 7.984000 43.709281 18.435000
H 6.616000 43.928281 17.825000
O 29.059000 51.784281 19.327000
H 29.202000 51.858281 18.384000
H 29.467000 52.569281 19.694000
O 49.084000 3.043719 20.398000
H 48.926000 2.871719 19.470000
H 49.190000 2.176719 20.788000
O 19.166000 36.832281 32.702000
H 19.724000 36.627281 33.451000
H 18.900000 37.741281 32.842000
O 18.284000 30.516281 33.202000
H 17.649000 31.199281 32.991000
H 18.817000 30.891281 33.903000
O 7.667000 31.595281 34.583000
H 8.005000 31.487281 33.694000
H 6.965000 30.947281 34.653000
O 20.942000 30.057281 26.378000
H 21.685000 29.530281 26.083000
H 20.900000 30.782281 25.755000
O 9.540000 43.816281 33.005000
H 10.439000 43.569281 32.789000
H 9.469000 43.661281 33.947000
O 8.542000 41.827281 31.657000
H 9.377000 41.361281 31.616000
H 8.733000 42.616281 32.164000
O 18.346000 43.792281 32.556000
H 19.296000 43.767281 32.442000
H 18.206000 44.418281 33.266000
O 16.118000 28.106281 30.247000
H 16.775000 27.434281 30.065000
H 15.387000 27.891281 29.669000
O 2.333000 39.923281 29.765000
H 3.196000 39.843281 30.171000
H 2.045000 40.808281 29.987000
O 8.456000 38.147281 31.955000
H 8.353000 37.240281 32.244000
H 8.367000 38.666281 32.754000
O 28.708000 36.595281 28.788000
H 28.267000 36.407281 29.616000
H 28.268000 37.376281 28.453000
O 22.014000 48.721281 25.831000
H 22.031000 47.764281 25.814000
H 21.902000 48.943281 26.755000
O 12.457000 31.561281 33.192000
H 12.975000 32.263281 32.799000
H 13.097000 31.022281 33.657000
O 13.857000 33.140281 31.441000
H 13.265000 32.768281 30.788000
H 14.029000 34.029281 31.130000
O 9.387000 28.631281 33.062000
H 9.872000 28.583281 32.238000
H 9.752000 29.394281 33.510000
O 15.409000 35.063281 26.006000
H 15.992000 35.512281 26.618000
H 14.728000 35.706281 25.806000
O 25.029000 47.634281 26.223000
H 24.640000 47.546281 27.093000
H 25.238000 48.565281 26.146000
O 7.595000 35.018281 26.578000
H 8.391000 35.086281 26.050000
H 7.195000 34.193281 26.303000
O 18.981000 47.575281 29.503000
H 19.831000 47.177281 29.692000
H 18.601000 47.748281 30.364000
O 12.982000 36.439281 25.679000
H 12.730000 35.607281 26.080000
H 12.228000 37.011281 25.821000
O 6.328000 37.074281 30.359000
H 7.023000 37.536281 30.829000
H 5.904000 36.535281 31.026000
O 12.972000 35.382281 28.656000
H 12.749000 36.255281 28.979000
H 12.255000 34.825281 28.958000
O 34.416000 0.230719 32.166000
H 34.139000 1.140719 32.270000
H 33.669000 -0.201281 31.753000
O 0.568000 49.272281 33.549000
H 0.281000 49.544281 32.677000
H 1.502000 49.480281 33.571000
O 16.205000 32.368281 32.691000
H 16.799000 33.119281 32.708000
H 15.458000 32.666281 32.172000
O 7.207000 45.318281 32.248000
H 8.091000 45.097281 32.541000
H 7.320000 45.605281 31.342000
O 16.556000 45.362281 26.571000
H 17.336000 45.259281 27.116000
H 16.786000 44.943281 25.741000
O 27.054000 41.218281 28.698000
H 26.258000 41.663281 28.988000
H 27.764000 41.809281 28.949000
O 12.947000 28.690281 31.366000
H 13.575000 28.218281 30.819000
H 13.379000 28.765281 32.217000
O 13.157000 40.467281 29.195000
H 12.845000 39.577281 29.362000
H 12.932000 40.632281 28.280000
O 3.305000 38.745281 33.869000
H 3.682000 38.072281 33.302000
H 3.816000 39.532281 33.681000
O 31.325000 3.341719 27.652000
H 32.217000 3.684719 27.604000
H 31.226000 2.815719 26.859000
O 7.306000 40.158281 33.546000
H 6.404000 40.300281 33.260000
H 7.819000 40.799281 33.053000
O 11.045000 40.875281 31.740000
H 11.582000 40.426281 31.088000
H 11.599000 41.588281 32.057000
O 1.728000 51.318281 31.438000
H 2.340000 50.696281 31.831000
H 1.332000 50.837281 30.711000
O 10.864000 38.164281 25.498000
H 10.320000 37.410281 25.729000
H 10.793000 38.751281 26.250000
O 35.453000 0.284719 28.336000
H 35.847000 0.569719 27.512000
H 36.196000 0.025719 28.881000
O 15.386000 37.835281 30.511000
H 14.586000 38.295281 30.258000
H 16.092000 38.443281 30.291000
O 12.234000 45.146281 30.494000
H 12.875000 44.436281 30.532000
H 11.554000 44.824281 29.903000
O 6.143000 35.644281 34.646000
H 5.604000 36.309281 35.074000
H 6.497000 35.123281 35.367000
O 6.595000 33.133281 31.062000
H 6.466000 32.828281 30.164000
H 5.783000 32.901281 31.513000
O 6.895000 51.994281 29.664000
H 7.079000 51.090281 29.409000
H 6.771000 51.955281 30.613000
O 14.767000 37.938281 27.408000
H 14.075000 37.346281 27.114000
H 15.574000 37.434281 27.303000
O 17.294000 40.175281 30.300000
H 16.990000 40.237281 29.395000
H 16.886000 40.920281 30.742000
O 16.730000 30.944281 30.066000
H 16.758000 30.002281 30.231000
H 16.326000 31.314281 30.851000
O 33.802000 2.968719 32.297000
H 33.009000 3.422719 32.581000
H 33.742000 2.955719 31.341000
O 15.698000 40.475281 33.951000
H 14.902000 40.951281 34.186000
H 15.402000 39.581281 33.778000
O 8.584000 35.201281 29.221000
H 8.267000 35.153281 28.320000
H 7.889000 35.657281 29.696000
O 0.963000 45.194281 30.716000
H 0.888000 45.460281 29.800000
H 1.682000 45.723281 31.062000
O 1.369000 32.300281 34.750000
H 1.594000 33.000281 35.363000
H 2.150000 31.748281 34.719000
O 15.732000 41.061281 28.054000
H 14.939000 40.574281 28.281000
H 15.431000 41.959281 27.920000
O 14.189000 28.620281 33.917000
H 13.557000 28.484281 34.624000
H 14.392000 27.739281 33.604000
O 10.912000 30.916281 30.929000
H 11.397000 31.150281 31.720000
H 11.504000 30.337281 30.447000
O 12.264000 37.204281 32.681000
H 11.861000 37.795281 33.317000
H 11.746000 36.401281 32.737000
O 0.702000 27.719281 30.432000
H 0.161000 28.503281 30.537000
H 0.213000 27.172281 29.817000
O 45.317000 1.619719 28.691000
H 44.440000 1.396719 28.378000
H 45.362000 2.572719 28.619000
O 15.049000 37.975281 33.181000
H 14.186000 37.562281 33.166000
H 15.369000 37.896281 32.282000
O 0.814000 31.702281 29.948000
H 0.299000 31.977281 29.189000
H 0.260000 31.062281 30.395000
O 5.474000 30.976281 29.149000
H 5.791000 30.436281 28.425000
H 4.634000 30.586281 29.389000
O 38.497000 2.656719 32.283000
H 39.244000 2.086719 32.462000
H 38.821000 3.539719 32.461000
O 4.069000 34.108281 25.276000
H 3.616000 33.267281 25.214000
H 3.468000 34.669281 25.766000
O 19.012000 44.847281 27.645000
H 18.855000 43.964281 27.312000
H 19.880000 45.078281 27.316000
O 13.717000 42.923281 30.988000
H 13.754000 42.129281 30.455000
H 14.609000 43.032281 31.319000
O 6.995000 29.079281 32.054000
H 7.853000 29.223281 32.451000
H 7.025000 29.571281 31.233000
O 12.393000 38.028281 30.097000
H 12.126000 37.779281 30.982000
H 11.581000 38.021281 29.591000
O 10.763000 34.158281 29.737000
H 10.702000 34.234281 30.690000
H 9.929000 34.501281 29.416000
O 11.990000 41.462281 26.617000
H 11.695000 42.352281 26.813000
H 12.786000 41.582281 26.099000
O 26.158000 45.979281 34.426000
H 25.772000 46.804281 34.718000
H 27.076000 46.035281 34.692000
O 12.967000 46.594281 26.092000
H 12.493000 47.274281 25.614000
H 13.687000 47.059281 26.519000
O 8.527000 31.644281 32.027000
H 9.254000 31.554281 31.411000
H 7.929000 32.261281 31.605000
O 10.717000 35.100281 32.560000
H 10.913000 34.929281 33.481000
H 9.777000 35.278281 32.544000
O 4.743000 41.217281 27.527000
H 4.711000 41.945281 28.148000
H 4.846000 41.636281 26.672000
O 44.140000 2.351719 33.133000
H 43.403000 2.827719 33.517000
H 44.545000 1.898719 33.873000
O 7.870000 42.156281 29.202000
H 8.055000 41.769281 30.058000
H 7.788000 41.406281 28.613000
O 14.824000 43.952281 28.364000
H 15.521000 43.926281 29.019000
H 15.240000 44.325281 27.586000
O 16.368000 42.170281 31.890000
H 16.353000 41.576281 32.641000
H 17.130000 42.728281 32.041000
O 3.198000 49.520281 33.348000
H 3.134000 48.930281 34.099000
H 4.081000 49.379281 33.007000
O 2.517000 34.282281 31.935000
H 2.391000 34.275281 30.986000
H 1.683000 33.974281 32.291000
O 11.610000 47.350281 28.854000
H 11.902000 47.023281 28.003000
H 11.848000 46.658281 29.471000
O 7.901000 35.556281 32.443000
H 7.565000 35.695281 33.328000
H 7.299000 34.921281 32.054000
O 4.294000 31.973281 32.450000
H 3.658000 31.282281 32.265000
H 3.760000 32.744281 32.644000
O 20.256000 43.264281 29.937000
H 20.056000 42.375281 29.645000
H 20.020000 43.820281 29.195000
O 4.452000 36.273281 32.324000
H 3.704000 35.682281 32.234000
H 4.962000 35.907281 33.046000
O 5.710000 43.209281 32.586000
H 6.309000 43.930281 32.393000
H 5.648000 43.197281 33.541000
O 10.123000 37.460281 28.578000
H 9.582000 36.683281 28.722000
H 9.526000 38.196281 28.708000
O 2.419000 35.644281 27.280000
H 2.269000 35.075281 28.035000
H 3.098000 36.253281 27.569000
O 9.711000 44.415281 29.451000
H 9.759000 44.475281 28.497000
H 9.275000 43.580281 29.618000
O 17.266000 40.145281 25.371000
H 16.396000 40.266281 25.752000
H 17.249000 40.662281 24.565000
O 1.087000 46.024281 27.999000
H 1.507000 45.375281 27.434000
H 1.590000 46.826281 27.859000
O 2.154000 44.183281 26.143000
H 2.133000 44.737281 25.363000
H 1.471000 43.530281 25.993000
O 7.348000 26.783281 27.648000
H 8.061000 27.323281 27.991000
H 7.100000 26.219281 28.381000
O 8.558000 30.665281 26.850000
H 7.630000 30.568281 26.636000
H 8.779000 29.863281 27.325000
O 11.539000 33.416281 25.553000
H 10.927000 32.894281 25.033000
H 11.549000 32.991281 26.410000
O 15.802000 31.875281 27.715000
H 15.673000 32.781281 27.996000
H 16.187000 31.440281 28.476000
O 37.192000 2.084719 29.999000
H 37.662000 2.078719 30.832000
H 36.446000 2.665719 30.148000
O 5.235000 37.009281 27.785000
H 5.832000 36.371281 27.393000
H 5.549000 37.111281 28.683000
O 10.829000 31.788281 28.015000
H 10.015000 31.525281 27.585000
H 10.546000 32.256281 28.800000
O 3.370000 38.899281 26.514000
H 3.580000 39.704281 26.988000
H 4.149000 38.351281 26.615000
O 16.616000 30.548281 25.584000
H 17.325000 30.005281 25.928000
H 16.275000 31.012281 26.350000
O 14.780000 48.486281 27.134000
H 15.714000 48.431281 27.335000
H 14.367000 48.704281 27.970000
O 11.081000 26.668281 34.526000
H 10.537000 26.167281 35.134000
H 10.498000 27.348281 34.187000
O 14.620000 51.551281 27.094000
H 15.281000 51.747281 26.429000
H 14.387000 50.635281 26.938000
O 11.023000 52.837281 33.953000
H 10.698000 51.973281 34.207000
H 11.834000 52.944281 34.449000
O 22.747000 53.120281 33.532000
H 22.409000 53.757281 32.903000
H 23.179000 52.457281 32.994000
O 2.273000 53.106281 27.007000
H 2.628000 53.321281 27.870000
H 1.417000 52.718281 27.190000
O 3.718000 45.349281 34.234000
H 3.631000 45.555281 33.303000
H 3.772000 46.202281 34.664000
O 16.336000 52.617281 31.468000
H 15.552000 53.034281 31.110000
H 16.795000 52.272281 30.703000
O 6.631000 43.942281 27.435000
H 7.421000 44.353281 27.084000
H 6.946000 43.150281 27.870000
O 41.362000 1.360719 30.425000
H 41.777000 0.591719 30.817000
H 40.480000 1.067719 30.198000
O 3.498000 45.933281 31.496000
H 3.939000 46.508281 30.871000
H 3.875000 45.068281 31.335000
O 15.607000 45.740281 34.110000
H 15.298000 46.109281 33.283000
H 16.490000 46.096281 34.217000
O 11.169000 46.998281 32.337000
H 11.458000 46.174281 31.944000
H 11.259000 46.859281 33.280000
O 9.237000 48.862281 31.947000
H 10.077000 48.403281 31.950000
H 8.888000 48.719281 31.067000
O 2.462000 48.403281 28.274000
H 2.748000 49.021281 27.601000
H 3.090000 48.517281 28.987000
O 44.678000 0.557719 31.078000
H 44.469000 1.222719 31.734000
H 44.990000 1.056719 30.323000
O 12.046000 52.207281 26.967000
H 12.872000 51.919281 27.357000
H 11.370000 51.774281 27.489000
O 17.075000 44.452281 30.003000
H 17.542000 44.805281 29.245000
H 17.757000 44.305281 30.658000
O 28.379000 45.251281 28.375000
H 29.191000 45.749281 28.278000
H 27.923000 45.371281 27.542000
O 8.819000 44.882281 26.286000
H 8.400000 45.325281 25.548000
H 9.648000 44.559281 25.933000
O 6.695000 52.260281 32.264000
H 5.833000 52.481281 32.616000
H 7.312000 52.717281 32.835000
O 7.351000 47.557281 33.683000
H 7.356000 46.699281 33.259000
H 8.077000 48.030281 33.277000
O 4.716000 43.212281 25.667000
H 3.960000 43.558281 26.141000
H 5.471000 43.475281 26.194000
O 15.498000 46.741281 31.470000
H 15.901000 45.986281 31.042000
H 15.959000 47.497281 31.108000
O 10.496000 51.107281 28.946000
H 10.881000 51.505281 29.727000
H 9.832000 51.734281 28.659000
O 13.247000 49.438281 29.117000
H 12.893000 50.133281 29.672000
H 12.572000 48.760281 29.121000
O 11.836000 52.223281 31.169000
H 11.571000 52.236281 32.089000
H 12.691000 52.651281 31.160000
O 14.984000 49.578281 34.086000
H 15.712000 50.065281 33.699000
H 14.474000 49.273281 33.335000
O 18.275000 48.385281 32.018000
H 19.022000 48.617281 32.569000
H 17.711000 49.158281 32.039000
O 12.228000 44.248281 27.680000
H 13.130000 43.983281 27.859000
H 12.310000 45.032281 27.137000
O 10.454000 30.615281 34.566000
H 9.804000 31.311281 34.471000
H 11.177000 30.883281 33.998000
O 5.813000 49.295281 32.175000
H 6.330000 48.652281 32.659000
H 6.207000 50.138281 32.400000
O 28.868000 46.898281 34.845000
H 29.549000 47.452281 34.463000
H 29.056000 46.898281 35.783000
O 6.674000 49.145281 28.534000
H 6.520000 48.608281 27.756000
H 7.578000 48.953281 28.783000
O 24.112000 50.725281 25.388000
H 23.275000 50.270281 25.484000
H 24.252000 50.773281 24.442000
O 3.905000 50.585281 27.298000
H 4.646000 50.707281 27.891000
H 3.493000 51.448281 27.248000
O 3.514000 52.115281 34.496000
H 3.679000 52.553281 33.661000
H 3.293000 51.215281 34.255000
O 7.533000 45.865281 29.700000
H 8.383000 45.464281 29.521000
H 7.164000 46.043281 28.835000
O 13.672000 51.897281 34.984000
H 13.314000 51.638281 35.833000
H 14.086000 51.103281 34.646000
O 4.657000 48.143281 30.024000
H 4.805000 48.487281 30.905000
H 5.457000 48.358281 29.544000
O 9.428000 48.694281 28.927000
H 9.793000 49.575281 29.013000
H 10.192000 48.117281 28.925000
O 18.307000 49.632281 25.065000
H 17.411000 49.751281 24.751000
H 18.212000 49.138281 25.880000
O 13.483000 48.583281 32.128000
H 12.661000 48.096281 32.191000
H 14.134000 47.925281 31.886000
O 10.419000 27.589281 30.711000
H 11.325000 27.876281 30.824000
H 10.489000 26.669281 30.457000
O 37.048000 1.473719 26.123000
H 37.389000 1.989719 26.853000
H 37.817000 1.034719 25.760000
O 17.199000 50.648281 33.009000
H 17.437000 51.201281 33.752000
H 16.792000 51.248281 32.384000
O 28.727000 49.036281 31.381000
H 27.913000 49.346281 31.777000
H 28.644000 48.083281 31.374000
O 10.147000 50.085281 34.418000
H 9.911000 49.501281 33.697000
H 9.815000 49.646281 35.201000
O 39.346000 0.197719 25.468000
H 39.368000 -0.720281 25.197000
H 40.125000 0.583719 25.068000
O 0.221000 51.018281 27.000000
H 0.611000 50.365281 26.419000
H 0.190000 50.590281 27.856000
O 4.800000 42.872281 29.837000
H 5.132000 43.100281 30.706000
H 5.421000 43.275281 29.230000
O 12.110000 43.091281 33.177000
H 12.768000 43.147281 32.484000
H 12.547000 42.616281 33.885000
O 4.143000 29.026281 32.505000
H 4.090000 28.113281 32.788000
H 5.065000 29.258281 32.613000
O 15.904000 49.221281 30.402000
H 16.476000 49.732281 29.829000
H 15.053000 49.654281 30.339000
O 8.993000 53.140281 28.156000
H 8.151000 52.908281 28.547000
H 8.790000 53.320281 27.238000
O 18.545000 39.576281 32.866000
H 18.145000 39.627281 31.998000
H 17.911000 39.994281 33.448000
O 28.821000 29.935281 31.000000
H 28.550000 30.093281 31.905000
H 28.047000 29.562281 30.580000
O 47.819000 1.199719 27.853000
H 46.911000 1.307719 28.137000
H 48.033000 2.022719 27.414000
O 30.941000 1.098719 29.076000
H 31.063000 1.951719 28.659000
H 30.135000 0.755719 28.691000
O 5.930000 29.456281 26.813000
H 6.285000 28.568281 26.853000
H 5.436000 29.480281 25.993000
O 29.351000 42.734281 28.280000
H 28.963000 43.582281 28.062000
H 29.826000 42.477281 27.489000
O 6.800000 47.372281 26.445000
H 6.037000 47.754281 26.012000
H 7.549000 47.814281 26.046000
O 42.801000 1.402719 28.032000
H 42.644000 0.615719 27.512000
H 42.136000 1.373719 28.720000
O 9.290000 48.812281 26.284000
H 9.721000 48.775281 27.138000
H 10.002000 48.716281 25.652000
O 31.432000 1.614719 25.662000
H 31.147000 1.104719 24.904000
H 32.191000 1.138719 26.000000
O 5.332000 49.884281 25.360000
H 5.329000 50.523281 24.647000
H 4.667000 50.203281 25.970000
O 17.610000 48.198281 27.313000
H 17.445000 47.358281 26.886000
H 17.955000 47.965281 28.175000
O 23.614000 36.298281 33.647000
H 23.622000 37.145281 34.094000
H 23.974000 36.482281 32.779000
O 28.655000 33.774281 34.682000
H 29.168000 33.191281 34.122000
H 29.175000 34.575281 34.735000
O 27.374000 35.972281 31.338000
H 26.937000 35.147281 31.548000
H 27.697000 36.294281 32.179000
O 20.790000 44.133281 33.731000
H 20.378000 44.872281 34.178000
H 20.849000 43.451281 34.400000
O 23.406000 43.352281 27.200000
H 22.613000 43.827281 26.951000
H 23.900000 43.973281 27.735000
O 25.469000 39.676281 30.619000
H 25.833000 40.448281 31.052000
H 24.816000 40.027281 30.012000
O 23.573000 41.047281 29.101000
H 23.444000 41.936281 28.770000
H 22.872000 40.925281 29.741000
O 21.841000 45.376281 26.840000
H 22.193000 45.650281 25.993000
H 22.353000 45.866281 27.483000
O 19.563000 40.753281 29.127000
H 19.226000 41.052281 28.282000
H 18.782000 40.619281 29.663000
O 0.753000 48.327281 25.580000
H 0.221000 47.552281 25.397000
H 0.479000 48.966281 24.922000
O 21.195000 34.501281 27.787000
H 21.313000 33.554281 27.858000
H 20.283000 34.648281 28.038000
O 0.799000 27.116281 33.201000
H 0.411000 26.298281 33.510000
H 0.435000 27.239281 32.324000
O 3.404000 31.106281 25.694000
H 3.832000 30.780281 24.903000
H 2.535000 30.704281 25.680000
O 21.644000 29.530281 31.437000
H 21.232000 29.342281 30.594000
H 20.988000 29.277281 32.087000
O 48.823000 2.866719 30.886000
H 49.367000 3.392719 31.472000
H 48.108000 2.552719 31.439000
O 24.967000 37.266281 31.454000
H 25.842000 36.886281 31.372000
H 25.040000 38.126281 31.040000
O 22.006000 44.574281 31.415000
H 21.589000 44.397281 32.258000
H 21.524000 44.033281 30.790000
O 24.154000 32.672281 29.929000
H 23.897000 33.415281 30.474000
H 23.397000 32.517281 29.363000
O 1.118000 42.360281 30.245000
H 0.496000 42.441281 29.522000
H 1.676000 43.135281 30.170000
O 24.162000 30.631281 34.166000
H 24.437000 30.624281 33.249000
H 24.804000 31.189281 34.605000
O 20.405000 29.669281 28.945000
H 20.617000 29.766281 28.017000
H 20.142000 28.754281 29.038000
O 24.152000 40.857281 33.998000
H 23.567000 40.909281 33.242000
H 25.027000 40.765281 33.619000
O 27.113000 39.825281 34.527000
H 27.443000 38.932281 34.424000
H 27.352000 40.265281 33.712000
O 52.367000 1.528719 31.744000
H 52.559000 1.367719 30.820000
H 52.787000 2.367719 31.934000
O 0.199000 33.211281 32.065000
H -0.746000 33.110281 31.948000
H 0.583000 32.765281 31.310000
O 4.569000 40.579281 32.607000
H 4.804000 41.493281 32.447000
H 4.746000 40.137281 31.777000
O 20.475000 36.168281 30.620000
H 19.919000 36.321281 31.384000
H 21.167000 35.589281 30.938000
O 29.176000 40.354281 32.411000
H 29.240000 39.956281 31.543000
H 29.474000 41.254281 32.286000
O 23.114000 28.595281 25.406000
H 23.569000 28.560281 24.564000
H 23.815000 28.597281 26.058000
O 36.037000 3.518719 33.534000
H 36.769000 3.113719 33.069000
H 35.256000 3.130719 33.138000
O 21.635000 38.407281 29.778000
H 21.223000 37.607281 30.103000
H 20.905000 38.949281 29.480000
O 24.649000 30.261281 31.473000
H 24.511000 31.092281 31.018000
H 23.790000 29.839281 31.470000
O 29.023000 32.233281 27.852000
H 28.275000 32.161281 28.446000
H 28.884000 33.060281 27.390000
O 27.313000 38.540281 27.675000
H 27.386000 39.245281 28.318000
H 26.409000 38.236281 27.753000
O 27.399000 37.030281 33.830000
H 26.633000 36.495281 34.041000
H 28.121000 36.611281 34.298000
O 27.589000 32.745281 31.677000
H 27.245000 32.358281 30.872000
H 27.568000 32.031281 32.314000
O 11.676000 27.422281 27.402000
H 11.807000 26.505281 27.645000
H 11.903000 27.459281 26.473000
O 9.903000 35.685281 25.362000
H 9.596000 35.424281 24.493000
H 10.671000 35.136281 25.520000
O 0.570000 38.897281 34.362000
H 0.165000 39.614281 33.875000
H 1.463000 38.849281 34.021000
O 20.848000 39.144281 34.279000
H 20.926000 38.289281 34.703000
H 19.907000 39.264281 34.153000
O 18.605000 34.822281 28.865000
H 19.035000 35.339281 29.546000
H 18.652000 33.920281 29.182000
O 25.442000 48.085281 30.458000
H 24.884000 48.827281 30.223000
H 25.754000 48.291281 31.339000
O 19.680000 32.030281 34.852000
H 19.977000 32.271281 33.975000
H 19.267000 32.823281 35.192000
O 26.354000 29.234281 29.695000
H 25.771000 29.242281 30.454000
H 25.813000 28.897281 28.981000
O 19.112000 32.220281 29.388000
H 18.281000 31.814281 29.633000
H 19.668000 31.487281 29.124000
O 29.689000 39.056281 30.022000
H 30.631000 39.183281 30.137000
H 29.597000 38.127281 29.810000
O 5.175000 33.360281 28.070000
H 5.145000 33.365281 27.113000
H 5.167000 32.433281 28.306000
O 17.471000 34.783281 32.263000
H 16.971000 35.076281 31.501000
H 18.112000 35.478281 32.410000
O 2.714000 33.734281 29.204000
H 2.519000 32.882281 29.593000
H 3.615000 33.654281 28.890000
O 22.933000 39.991281 26.797000
H 23.086000 40.453281 27.621000
H 22.938000 39.064281 27.036000
O 20.185000 33.059281 32.212000
H 19.443000 33.657281 32.120000
H 19.981000 32.331281 31.625000
O 5.222000 39.484281 30.217000
H 5.540000 38.585281 30.308000
H 5.845000 39.900281 29.622000
O 28.544000 34.707281 26.658000
H 29.071000 35.037281 25.930000
H 28.808000 35.242281 27.407000
O 56.322000 3.240719 31.801000
H 55.426000 3.517719 31.990000
H 56.276000 2.861719 30.924000
O 26.849000 41.907281 26.099000
H 26.997000 41.709281 27.024000
H 26.181000 41.280281 25.823000
O 24.133000 46.158281 32.544000
H 23.620000 45.467281 32.125000
H 24.744000 45.692281 33.114000
O 15.300000 35.073281 30.158000
H 15.361000 36.012281 30.336000
H 14.535000 34.987281 29.589000
O 0.644000 36.963281 25.805000
H 0.499000 37.819281 26.209000
H 1.169000 36.481281 26.444000
O 28.905000 28.516281 26.285000
H 29.526000 29.241281 26.222000
H 29.372000 27.841281 26.778000
O 26.575000 32.000281 29.203000
H 25.706000 32.336281 29.426000
H 26.544000 31.075281 29.448000
O 25.047000 36.879281 28.202000
H 24.158000 37.075281 27.908000
H 24.967000 36.768281 29.149000
O 22.367000 40.024281 31.917000
H 21.908000 39.631281 32.659000
H 22.328000 39.359281 31.230000
O 19.357000 28.104281 32.581000
H 19.533000 27.801281 33.472000
H 18.792000 28.868281 32.694000
O 57.572000 1.514719 33.276000
H 57.259000 2.266719 32.773000
H 56.909000 1.386719 33.954000
O 0.464000 39.295281 26.981000
H -0.063000 39.263281 27.779000
H 1.367000 39.203281 27.286000
O 33.997000 2.369719 29.589000
H 34.657000 1.705719 29.392000
H 33.888000 2.850719 28.768000
O 0.283000 30.856281 25.790000
H 0.298000 31.417281 25.015000
H -0.173000 31.374281 26.453000
O 22.391000 34.488281 31.329000
H 22.691000 34.990281 32.087000
H 21.698000 33.924281 31.673000
O 23.863000 32.664281 26.088000
H 23.319000 32.825281 25.317000
H 24.448000 33.420281 26.132000
O 22.664000 37.336281 27.564000
H 22.405000 36.416281 27.628000
H 22.261000 37.753281 28.325000
O 17.255000 36.603281 27.136000
H 17.701000 36.630281 26.289000
H 17.888000 36.193281 27.727000
O 3.571000 28.781281 29.864000
H 2.746000 28.296281 29.884000
H 3.855000 28.808281 30.778000
O 25.867000 34.691281 26.347000
H 26.780000 34.645281 26.629000
H 25.507000 35.442281 26.819000
O 20.626000 40.860281 25.845000
H 20.771000 40.526281 24.960000
H 21.309000 40.446281 26.373000
O 22.281000 35.186281 25.287000
H 21.701000 34.805281 24.627000
H 21.987000 34.804281 26.114000
O 13.147000 30.195281 28.408000
H 13.721000 30.865281 28.037000
H 12.262000 30.524281 28.252000
O 7.392000 40.114281 27.527000
H 7.674000 39.979281 26.622000
H 6.444000 40.235281 27.468000
O 18.519000 42.252281 27.009000
H 17.749000 42.020281 26.491000
H 19.243000 41.798281 26.578000
O 26.171000 31.013281 26.278000
H 26.650000 31.384281 27.020000
H 25.422000 31.597281 26.161000
O 16.635000 52.538281 25.501000
H 16.959000 53.142281 24.833000
H 16.837000 52.967281 26.331000
O 20.589000 49.079281 33.203000
H 21.474000 48.999281 32.846000
H 20.598000 49.907281 33.683000
O 50.080000 0.648719 29.025000
H 49.285000 0.691719 28.493000
H 49.862000 1.132719 29.822000
O 27.313000 50.939281 29.874000
H 27.768000 50.235281 30.337000
H 26.912000 51.462281 30.568000
O 17.122000 51.223281 28.946000
H 16.661000 51.583281 28.188000
H 17.986000 50.985281 28.612000
O 52.683000 1.293719 28.919000
H 52.950000 1.948719 28.274000
H 51.744000 1.181719 28.772000
O 29.759000 43.012281 32.575000
H 30.346000 42.829281 31.842000
H 29.108000 43.616281 32.217000
O 56.190000 1.484719 29.273000
H 56.442000 1.924719 28.461000
H 55.601000 0.783719 28.994000
O 50.292000 1.782719 33.661000
H 51.049000 1.788719 33.076000
H 50.580000 1.277719 34.421000
O 26.885000 45.837281 26.189000
H 26.246000 46.542281 26.292000
H 26.419000 45.160281 25.698000
O 22.993000 48.629281 32.103000
H 23.253000 49.053281 32.922000
H 23.642000 47.938281 31.975000
O 51.203000 3.228719 25.301000
H 51.756000 3.797719 24.764000
H 51.816000 2.776719 25.881000
O 24.415000 51.237281 32.092000
H 24.911000 51.951281 31.691000
H 23.977000 50.807281 31.358000
O 27.830000 30.160281 33.551000
H 28.507000 30.027281 34.215000
H 27.075000 29.669281 33.877000
O 26.300000 49.413281 32.673000
H 25.563000 49.934281 32.355000
H 26.606000 49.879281 33.451000
O 57.880000 1.308719 25.897000
H 58.056000 0.760719 25.132000
H 58.455000 0.960719 26.579000
O 26.261000 43.562281 29.903000
H 26.806000 44.291281 29.608000
H 26.426000 43.503281 30.844000
O 1.035000 43.070281 34.990000
H 0.532000 43.102281 34.176000
H 1.737000 43.708281 34.863000
O 30.867000 0.037719 31.581000
H 30.960000 0.350719 30.681000
H 31.525000 -0.652281 31.664000
O 23.764000 50.439281 29.583000
H 22.985000 49.975281 29.277000
H 23.792000 51.236281 29.053000
O 21.708000 46.925281 29.937000
H 21.952000 47.536281 30.633000
H 21.777000 46.060281 30.341000
O 24.495000 45.324281 28.928000
H 24.450000 45.922281 29.674000
H 24.946000 44.551281 29.267000
O 34.612000 0.639719 24.988000
H 35.452000 0.996719 25.275000
H 34.143000 0.446719 25.800000
O 21.600000 49.117281 28.431000
H 21.176000 48.370281 28.853000
H 20.908000 49.774281 28.354000
O 18.221000 46.271281 33.989000
H 18.712000 46.334281 34.809000
H 18.380000 47.107281 33.550000
O 25.122000 43.827281 25.125000
H 24.416000 43.746281 25.767000
H 25.685000 43.071281 25.292000
O 60.342000 1.719719 33.540000
H 59.385000 1.729719 33.568000
H 60.556000 1.063719 32.877000
O 3.140000 27.312281 27.441000
H 3.360000 27.475281 26.524000
H 3.540000 28.040281 27.917000
O 0.730000 41.736281 26.192000
H 0.617000 40.788281 26.268000
H 0.022000 42.016281 25.612000
O 26.557000 27.017281 25.505000
H 27.342000 27.489281 25.782000
H 26.822000 26.097281 25.495000
O 19.871000 51.222281 28.207000
H 19.899000 51.538281 27.304000
H 19.919000 52.016281 28.740000
O 26.170000 53.155281 31.330000
H 26.134000 53.717281 30.556000
H 26.498000 53.726281 32.025000
O 26.621000 41.476281 32.328000
H 27.507000 41.141281 32.187000
H 26.749000 42.378281 32.620000
O 22.365000 31.966281 28.103000
H 22.910000 32.282281 27.382000
H 21.957000 31.169281 27.765000
O 27.750000 46.604281 30.527000
H 28.022000 46.240281 29.684000
H 26.937000 47.072281 30.335000
O 28.290000 52.831281 27.643000
H 27.734000 52.236281 28.145000
H 28.926000 52.259281 27.213000
O 47.575000 1.600719 32.905000
H 47.324000 0.745719 32.556000
H 48.475000 1.481719 33.208000
O 27.189000 44.192281 32.318000
H 26.844000 44.648281 33.085000
H 27.707000 44.853281 31.858000
O 23.025000 27.223281 32.297000
H 22.712000 27.315281 33.197000
H 22.758000 28.035281 31.866000
O 0.221000 49.812281 29.349000
H 0.863000 49.155281 29.081000
H -0.353000 49.351281 29.962000
O 25.273000 28.686281 27.167000
H 25.615000 29.421281 26.658000
H 25.520000 27.910281 26.663000
O 14.619000 27.508281 28.019000
H 13.973000 28.213281 28.065000
H 14.984000 27.575281 27.136000
O 17.939000 26.741281 26.546000
H 17.281000 27.176281 26.003000
H 18.648000 26.529281 25.939000
O 55.234000 0.982719 25.452000
H 56.047000 1.329719 25.821000
H 55.471000 0.707719 24.566000
O 53.393000 2.506719 26.656000
H 54.013000 1.959719 26.173000
H 53.595000 3.400719 26.380000
O 19.510000 27.247281 28.824000
H 19.155000 27.024281 27.963000
H 18.803000 27.042281 29.436000
O 26.346000 49.802281 27.000000
H 26.473000 50.052281 27.915000
H 25.590000 50.313281 26.713000
O 20.881000 52.493281 25.716000
H 21.219000 53.287281 25.303000
H 20.936000 51.825281 25.033000
O 23.923000 52.799281 27.970000
H 23.798000 52.652281 27.032000
H 23.067000 53.090281 28.283000
O 9.245000 28.400281 28.364000
H 9.913000 28.183281 27.713000
H 9.670000 28.237281 29.207000
O 36.308000 22.389719 47.139000
H 35.610000 22.567719 47.769000
H 36.550000 23.250719 46.799000
O 49.916000 13.571719 42.702000
H 50.474000 13.366719 43.451000
H 49.650000 14.480719 42.842000
O 49.034000 7.255719 43.202000
H 48.399000 7.938719 42.991000
H 49.567000 7.630719 43.903000
O 38.417000 8.334719 44.583000
H 38.755000 8.226719 43.694000
H 37.715000 7.686719 44.653000
O 51.692000 6.796719 36.378000
H 52.435000 6.269719 36.083000
H 51.650000 7.521719 35.755000
O 42.828000 16.417719 46.607000
H 43.516000 15.764719 46.733000
H 42.361000 16.125719 45.824000
O 38.488000 11.847719 56.717000
H 39.219000 11.954719 57.326000
H 38.183000 12.738719 56.550000
O 40.290000 20.555719 43.005000
H 41.189000 20.308719 42.789000
H 40.219000 20.400719 43.947000
O 35.849000 20.346719 54.750000
H 36.233000 20.280719 55.624000
H 35.165000 19.677719 54.737000
O 39.292000 18.566719 41.657000
H 40.127000 18.100719 41.616000
H 39.483000 19.355719 42.164000
O 49.096000 20.531719 42.556000
H 50.046000 20.506719 42.442000
H 48.956000 21.157719 43.266000
O 34.465000 8.207719 52.413000
H 33.530000 8.294719 52.228000
H 34.871000 8.098719 51.553000
O 46.868000 4.845719 40.247000
H 47.525000 4.173719 40.065000
H 46.137000 4.630719 39.669000
O 44.283000 20.445719 53.627000
H 44.318000 19.701719 54.229000
H 43.394000 20.425719 53.272000
O 33.083000 16.662719 39.765000
H 33.946000 16.582719 40.171000
H 32.795000 17.547719 39.987000
O 39.206000 14.886719 41.955000
H 39.103000 13.979719 42.244000
H 39.117000 15.405719 42.754000
O 41.181000 18.479719 64.463000
H 40.443000 17.945719 64.756000
H 41.858000 18.337719 65.125000
O -2.042000 13.334719 38.788000
H -2.483000 13.146719 39.616000
H -2.482000 14.115719 38.453000
O -8.736000 25.460719 35.831000
H -8.719000 24.503719 35.814000
H -8.848000 25.682719 36.755000
O 43.207000 8.300719 43.192000
H 43.725000 9.002719 42.799000
H 43.847000 7.761719 43.657000
O 44.607000 9.879719 41.441000
H 44.015000 9.507719 40.788000
H 44.779000 10.768719 41.130000
O 34.702000 11.073719 51.311000
H 34.565000 10.150719 51.523000
H 34.954000 11.476719 52.143000
O 35.534000 19.961719 45.209000
H 35.992000 20.364719 45.946000
H 35.048000 20.680719 44.805000
O 46.652000 13.557719 52.434000
H 47.020000 14.397719 52.161000
H 45.781000 13.774719 52.767000
O 40.137000 5.370719 43.062000
H 40.622000 5.322719 42.238000
H 40.502000 6.133719 43.510000
O 46.159000 11.802719 36.006000
H 46.742000 12.251719 36.618000
H 45.478000 12.445719 35.806000
O 41.938000 18.138719 50.685000
H 41.774000 18.392719 49.776000
H 41.076000 17.905719 51.028000
O -4.183000 9.515719 56.177000
H -4.582000 10.090719 56.830000
H -4.799000 8.788719 56.090000
O 46.759000 13.444719 45.445000
H 46.609000 13.610719 44.514000
H 46.623000 12.502719 45.546000
O -5.721000 24.373719 36.223000
H -6.110000 24.285719 37.093000
H -5.512000 25.304719 36.146000
O 38.345000 11.757719 36.578000
H 39.141000 11.825719 36.050000
H 37.945000 10.932719 36.303000
O 45.075000 8.589719 48.246000
H 44.150000 8.541719 48.006000
H 45.250000 7.761719 48.694000
O -11.769000 24.314719 39.503000
H -10.919000 23.916719 39.692000
H -12.149000 24.487719 40.364000
O 37.228000 11.314719 47.243000
H 36.364000 10.940719 47.419000
H 37.807000 10.555719 47.170000
O 42.966000 11.339719 48.424000
H 43.276000 11.304719 47.519000
H 43.047000 12.260719 48.670000
O 38.827000 18.445719 53.002000
H 38.508000 17.677719 53.477000
H 38.575000 19.188719 53.550000
O 41.084000 8.947719 48.759000
H 41.415000 8.765719 49.639000
H 41.450000 9.803719 48.537000
O 43.732000 13.178719 35.679000
H 43.480000 12.346719 36.080000
H 42.978000 13.750719 35.821000
O 32.317000 14.776719 52.947000
H 32.205000 15.423719 52.251000
H 32.500000 15.296719 53.730000
O 37.078000 13.813719 40.359000
H 37.773000 14.275719 40.829000
H 36.654000 13.274719 41.026000
O 48.738000 10.529719 50.503000
H 49.457000 10.100719 50.040000
H 48.179000 10.878719 49.808000
O 43.722000 12.121719 38.656000
H 43.499000 12.994719 38.979000
H 43.005000 11.564719 38.958000
O 43.355000 21.320719 64.247000
H 43.649000 21.941719 64.913000
H 42.433000 21.535719 64.108000
O 46.955000 9.107719 42.691000
H 47.549000 9.858719 42.708000
H 46.208000 9.405719 42.172000
O 45.485000 19.744719 47.328000
H 45.879000 19.364719 48.113000
H 45.093000 20.564719 47.629000
O 42.649000 7.686719 46.937000
H 42.072000 7.414719 46.223000
H 42.059000 7.850719 47.673000
O 36.930000 14.349719 51.885000
H 36.511000 13.635719 52.368000
H 36.247000 15.015719 51.802000
O 37.957000 22.057719 42.248000
H 38.841000 21.836719 42.541000
H 38.070000 22.344719 41.342000
O 31.760000 8.460719 52.422000
H 31.564000 8.775719 51.540000
H 31.381000 7.581719 52.453000
O 47.306000 22.101719 36.571000
H 48.086000 21.998719 37.116000
H 47.536000 21.682719 35.741000
O -3.696000 17.957719 38.698000
H -4.492000 18.402719 38.988000
H -2.986000 18.548719 38.949000
O 43.697000 5.429719 41.366000
H 44.325000 4.957719 40.819000
H 44.129000 5.504719 42.217000
O 43.907000 17.206719 39.195000
H 43.595000 16.316719 39.362000
H 43.682000 17.371719 38.280000
O 34.055000 15.484719 43.869000
H 34.432000 14.811719 43.302000
H 34.566000 16.271719 43.681000
O 47.481000 6.994719 53.369000
H 48.374000 6.917719 53.707000
H 47.590000 7.101719 52.425000
O 39.845000 6.698719 51.933000
H 39.547000 6.401719 51.073000
H 40.576000 7.286719 51.743000
O 38.056000 16.897719 43.546000
H 37.154000 17.039719 43.260000
H 38.569000 17.538719 43.053000
O 37.279000 4.532719 47.211000
H 37.202000 5.170719 47.921000
H 37.973000 3.937719 47.497000
O 41.795000 17.614719 41.740000
H 42.332000 17.165719 41.088000
H 42.349000 18.327719 42.057000
O 37.038000 6.109719 45.062000
H 37.121000 5.567719 45.847000
H 37.141000 5.496719 44.334000
O 41.614000 14.903719 35.498000
H 41.070000 14.149719 35.729000
H 41.543000 15.490719 36.250000
O 43.317000 12.568719 52.147000
H 42.564000 12.892719 51.652000
H 43.636000 13.333719 52.626000
O 46.136000 14.574719 40.511000
H 45.336000 15.034719 40.258000
H 46.842000 15.182719 40.291000
O 32.438000 12.926719 46.986000
H 32.069000 13.774719 47.232000
H 33.372000 13.096719 46.866000
O 42.984000 21.885719 40.494000
H 43.625000 21.175719 40.532000
H 42.304000 21.563719 39.903000
O 42.429000 6.060719 63.526000
H 42.710000 5.293719 64.025000
H 43.069000 6.736719 63.745000
O 36.893000 12.383719 44.646000
H 36.354000 13.048719 45.074000
H 37.247000 11.862719 45.367000
O 37.345000 9.872719 41.062000
H 37.216000 9.567719 40.164000
H 36.533000 9.640719 41.513000
O 46.147000 10.863719 45.881000
H 46.606000 10.033719 46.011000
H 45.226000 10.654719 46.037000
O 47.444000 8.650719 46.756000
H 47.296000 8.016719 46.055000
H 46.639000 8.629719 47.273000
O 45.517000 14.677719 37.408000
H 44.825000 14.085719 37.114000
H 46.324000 14.173719 37.303000
O 36.549000 12.453719 60.969000
H 35.813000 12.170719 61.511000
H 37.248000 12.643719 61.594000
O 48.044000 16.914719 40.300000
H 47.740000 16.976719 39.395000
H 47.636000 17.659719 40.742000
O 47.480000 7.683719 40.066000
H 47.508000 6.741719 40.231000
H 47.076000 8.053719 40.851000
O -6.042000 18.103719 52.911000
H -6.268000 18.583719 53.707000
H -5.116000 17.884719 53.017000
O 41.417000 18.106719 48.129000
H 40.744000 17.530719 48.493000
H 41.957000 17.531719 47.587000
O 44.770000 23.428719 51.935000
H 44.539000 23.552719 52.856000
H 45.626000 23.847719 51.844000
O 46.448000 17.214719 43.951000
H 45.652000 17.690719 44.186000
H 46.152000 16.320719 43.778000
O 50.792000 15.649719 48.134000
H 50.126000 15.160719 47.650000
H 50.989000 15.099719 48.892000
O 44.034000 17.239719 53.207000
H 43.108000 17.268719 52.969000
H 44.479000 16.949719 52.410000
O 39.334000 11.940719 39.221000
H 39.017000 11.892719 38.320000
H 38.639000 12.396719 39.696000
O 39.597000 13.126719 47.313000
H 39.810000 13.537719 48.151000
H 38.849000 12.560719 47.508000
O 43.643000 5.204719 46.086000
H 42.817000 4.721719 46.088000
H 43.544000 5.853719 46.782000
O 34.248000 14.629719 55.027000
H 34.412000 15.279719 54.344000
H 34.581000 15.033719 55.828000
O 31.713000 21.933719 40.716000
H 31.638000 22.199719 39.800000
H 32.432000 22.462719 41.062000
O 32.119000 9.039719 44.750000
H 32.344000 9.739719 45.363000
H 32.900000 8.487719 44.719000
O 46.482000 17.800719 38.054000
H 45.689000 17.313719 38.281000
H 46.181000 18.698719 37.920000
O 44.193000 13.640719 49.451000
H 44.200000 14.482719 49.906000
H 44.881000 13.130719 49.878000
O 44.939000 5.359719 43.917000
H 44.307000 5.223719 44.624000
H 45.142000 4.478719 43.604000
O 34.365000 22.794719 48.928000
H 33.695000 23.009719 48.278000
H 34.245000 21.859719 49.096000
O 35.101000 9.587719 47.296000
H 34.913000 9.065719 48.076000
H 34.959000 8.987719 46.564000
O 44.338000 14.541719 53.581000
H 43.836000 14.208719 54.325000
H 44.183000 15.486719 53.590000
O 47.056000 4.261719 53.802000
H 46.181000 3.976719 53.537000
H 47.155000 5.127719 53.408000
O 33.331000 17.642719 48.784000
H 33.688000 17.280719 47.973000
H 32.420000 17.347719 48.799000
O 43.499000 10.348719 46.148000
H 42.761000 10.866719 45.827000
H 43.097000 9.561719 46.515000
O 41.662000 7.655719 40.929000
H 42.147000 7.889719 41.720000
H 42.254000 7.076719 40.447000
O -1.142000 6.672719 45.459000
H -0.607000 7.417719 45.183000
H -0.530000 5.937719 45.496000
O 32.078000 12.214719 51.965000
H 32.927000 12.001719 51.579000
H 32.169000 13.119719 52.262000
O 43.014000 13.943719 42.681000
H 42.611000 14.534719 43.317000
H 42.496000 13.140719 42.737000
O 50.252000 17.924719 52.922000
H 50.826000 18.229719 52.219000
H 50.411000 16.982719 52.971000
O 31.452000 4.458719 40.432000
H 30.911000 5.242719 40.537000
H 30.963000 3.911719 39.817000
O 41.801000 12.356719 45.749000
H 42.472000 12.937719 46.107000
H 40.990000 12.637719 46.173000
O 38.319000 21.092719 53.947000
H 38.557000 21.428719 53.083000
H 37.362000 21.070719 53.942000
O -10.106000 19.222719 50.481000
H -10.364000 19.981719 51.005000
H -9.153000 19.189719 50.559000
O 41.212000 17.159719 53.632000
H 40.430000 17.706719 53.557000
H 40.888000 16.322719 53.965000
O 48.057000 13.370719 62.735000
H 48.501000 13.846719 63.437000
H 47.151000 13.292719 63.033000
O 45.799000 14.714719 43.181000
H 44.936000 14.301719 43.166000
H 46.119000 14.635719 42.282000
O 31.564000 8.441719 39.948000
H 31.049000 8.716719 39.189000
H 31.010000 7.801719 40.395000
O 31.674000 8.986719 49.692000
H 32.063000 9.434719 48.941000
H 31.290000 8.190719 49.325000
O 35.946000 6.428719 58.084000
H 35.577000 7.271719 57.821000
H 36.303000 6.060719 57.275000
O 46.462000 11.173719 49.015000
H 45.813000 10.482719 49.154000
H 46.487000 11.291719 48.066000
O 41.593000 8.590719 51.508000
H 41.558000 9.497719 51.811000
H 42.528000 8.396719 51.437000
O -2.189000 23.522719 64.436000
H -2.356000 22.885719 63.741000
H -2.742000 23.234719 65.163000
O 36.843000 24.787719 46.071000
H 37.167000 24.736719 45.172000
H 37.416000 25.425719 46.497000
O 41.851000 15.674719 44.292000
H 40.962000 15.391719 44.508000
H 41.730000 16.398719 43.678000
O 39.529000 14.674719 45.163000
H 38.948000 15.362719 45.487000
H 39.409000 13.949719 45.776000
O 35.628000 12.248719 53.603000
H 35.891000 11.628719 54.283000
H 35.232000 12.976719 54.081000
O 44.348000 16.093719 59.498000
H 43.544000 15.578719 59.567000
H 44.619000 15.994719 58.586000
O 36.224000 7.715719 39.149000
H 36.541000 7.175719 38.425000
H 35.384000 7.325719 39.389000
O 50.447000 9.272719 48.952000
H 50.127000 8.524719 49.457000
H 51.401000 9.198719 48.994000
O -0.670000 18.265719 58.172000
H -1.095000 17.814719 57.442000
H -1.380000 18.447719 58.788000
O 36.827000 25.665719 52.162000
H 36.982000 26.513719 51.747000
H 37.096000 25.790719 53.072000
O 34.819000 10.847719 35.276000
H 34.366000 10.006719 35.214000
H 34.218000 11.408719 35.766000
O 32.353000 10.174719 47.366000
H 33.284000 9.952719 47.378000
H 32.335000 11.131719 47.390000
O 49.238000 13.724719 46.811000
H 49.130000 12.853719 47.195000
H 48.413000 13.889719 46.355000
O -11.738000 21.586719 37.645000
H -11.895000 20.703719 37.312000
H -10.870000 21.817719 37.316000
O -10.288000 18.639719 45.683000
H -10.103000 17.888719 45.119000
H -11.243000 18.662719 45.747000
O 44.467000 19.662719 40.988000
H 44.504000 18.868719 40.455000
H 45.359000 19.771719 41.319000
O -1.731000 9.860719 47.351000
H -0.792000 9.911719 47.526000
H -1.808000 9.999719 46.407000
O -0.822000 16.645719 51.771000
H -1.619000 16.159719 51.984000
H -0.904000 16.841719 50.837000
O 37.745000 5.818719 42.054000
H 38.603000 5.962719 42.451000
H 37.775000 6.310719 41.233000
O 43.143000 14.767719 40.097000
H 42.876000 14.518719 40.982000
H 42.331000 14.760719 39.591000
O 41.513000 10.897719 39.737000
H 41.452000 10.973719 40.690000
H 40.679000 11.240719 39.416000
O 39.109000 16.679719 48.996000
H 38.526000 16.596719 48.241000
H 39.156000 15.796719 49.362000
O 42.740000 18.201719 36.617000
H 42.445000 19.091719 36.813000
H 43.536000 18.321719 36.099000
O -4.592000 22.718719 44.426000
H -4.978000 23.543719 44.718000
H -3.674000 22.774719 44.692000
O 43.717000 23.333719 36.092000
H 43.243000 24.013719 35.614000
H 44.437000 23.798719 36.519000
O 44.266000 18.496719 45.134000
H 43.682000 17.840719 45.515000
H 44.631000 18.959719 45.888000
O 39.277000 8.383719 42.027000
H 40.004000 8.293719 41.411000
H 38.679000 9.000719 41.605000
O 44.864000 18.917719 65.120000
H 44.588000 19.800719 64.877000
H 44.847000 18.425719 64.299000
O 37.472000 16.980719 46.362000
H 36.567000 17.293719 46.342000
H 37.825000 17.213719 45.503000
O -7.582000 19.311719 46.253000
H -7.203000 18.705719 45.616000
H -8.527000 19.177719 46.178000
O 41.467000 11.839719 42.560000
H 41.663000 11.668719 43.481000
H 40.527000 12.017719 42.544000
O 38.721000 9.104719 47.198000
H 38.838000 8.678719 46.349000
H 39.611000 9.235719 47.525000
O 35.493000 17.956719 37.527000
H 35.461000 18.684719 38.148000
H 35.596000 18.375719 36.672000
O 38.620000 18.895719 39.202000
H 38.805000 18.508719 40.058000
H 38.538000 18.145719 38.613000
O 33.866000 20.145719 49.164000
H 34.786000 19.892719 49.089000
H 33.380000 19.359719 48.913000
O 37.322000 7.043719 48.408000
H 37.969000 6.729719 49.040000
H 37.791000 7.695719 47.888000
O 44.398000 13.815719 46.793000
H 44.422000 13.687719 47.741000
H 45.301000 13.673719 46.509000
O 45.574000 20.691719 38.364000
H 46.271000 20.665719 39.019000
H 45.990000 21.064719 37.586000
O 40.913000 14.587719 54.050000
H 41.765000 14.309719 54.389000
H 40.278000 14.205719 54.657000
O 47.118000 18.909719 41.890000
H 47.103000 18.315719 42.641000
H 47.880000 19.467719 42.041000
O 35.952000 6.492719 54.949000
H 36.387000 7.001719 54.265000
H 35.183000 7.011719 55.183000
O 46.275000 19.573719 51.914000
H 45.404000 19.490719 52.303000
H 46.843000 19.056719 52.486000
O 33.948000 26.259719 43.348000
H 33.884000 25.669719 44.099000
H 34.831000 26.118719 43.007000
O 49.175000 10.589719 46.802000
H 49.844000 10.160719 47.335000
H 48.497000 9.923719 46.685000
O 42.983000 3.765719 64.692000
H 43.883000 3.441719 64.709000
H 42.444000 2.975719 64.643000
O 33.267000 11.021719 41.935000
H 33.141000 11.014719 40.986000
H 32.433000 10.713719 42.291000
O 45.561000 6.362719 49.506000
H 45.106000 5.528719 49.386000
H 45.133000 6.763719 50.262000
O 49.659000 18.050719 48.653000
H 50.318000 18.489719 49.192000
H 49.980000 17.153719 48.565000
O 45.469000 16.765719 63.085000
H 44.923000 17.009719 62.338000
H 46.248000 17.315719 63.002000
O 42.360000 24.089719 38.854000
H 42.652000 23.762719 38.003000
H 42.598000 23.397719 39.471000
O 42.194000 20.512719 52.119000
H 42.363000 19.641719 51.759000
H 42.539000 21.115719 51.461000
O 38.651000 12.295719 42.443000
H 38.315000 12.434719 43.328000
H 38.049000 11.660719 42.054000
O 35.044000 8.712719 42.450000
H 34.408000 8.021719 42.265000
H 34.510000 9.483719 42.644000
O -10.494000 20.003719 39.937000
H -10.694000 19.114719 39.645000
H -10.730000 20.559719 39.195000
O 38.888000 14.055719 49.816000
H 38.185000 13.887719 50.443000
H 39.692000 13.958719 50.326000
O 34.242000 17.511719 45.856000
H 33.446000 17.322719 45.360000
H 34.600000 18.298719 45.446000
O 38.535000 19.154719 50.456000
H 38.620000 18.817719 51.348000
H 38.581000 18.376719 49.900000
O 35.202000 13.012719 42.324000
H 34.454000 12.421719 42.234000
H 35.712000 12.646719 43.046000
O -7.570000 19.157719 50.722000
H -6.982000 18.739719 51.352000
H -7.053000 19.870719 50.347000
O 40.890000 13.239719 51.429000
H 40.869000 13.845719 52.170000
H 40.553000 12.415719 51.783000
O 36.460000 19.948719 42.586000
H 37.059000 20.669719 42.393000
H 36.398000 19.936719 43.541000
O 40.873000 14.199719 38.578000
H 40.332000 13.422719 38.722000
H 40.276000 14.935719 38.708000
O 36.668000 20.174719 48.613000
H 37.315000 20.188719 49.319000
H 36.742000 21.035719 48.203000
O 40.811000 8.233719 64.232000
H 41.416000 7.508719 64.074000
H 40.208000 7.902719 64.898000
O 33.169000 12.383719 37.280000
H 33.019000 11.814719 38.035000
H 33.848000 12.992719 37.569000
O 40.461000 21.154719 39.451000
H 40.509000 21.214719 38.497000
H 40.025000 20.319719 39.618000
O 46.845000 19.403719 59.400000
H 47.717000 19.252719 59.764000
H 46.262000 19.389719 60.159000
O 50.666000 11.004719 63.445000
H 50.954000 11.405719 62.625000
H 49.739000 11.235719 63.512000
O 44.045000 8.083719 64.238000
H 44.656000 8.746719 63.917000
H 43.482000 8.553719 64.853000
O 50.709000 14.949719 53.139000
H 49.935000 14.602719 53.583000
H 51.357000 15.055719 53.836000
O 38.663000 13.011719 62.445000
H 38.998000 12.192719 62.812000
H 39.290000 13.675719 62.730000
O 40.192000 4.688719 62.724000
H 39.917000 4.187719 63.493000
H 40.914000 5.232719 63.037000
O 47.657000 8.347719 63.053000
H 47.421000 7.920719 63.877000
H 47.129000 7.900719 62.392000
O 34.030000 21.503719 59.437000
H 34.779000 21.067719 59.030000
H 34.035000 21.194719 60.343000
O 34.725000 14.744719 62.003000
H 34.144000 15.009719 62.716000
H 34.727000 13.787719 62.037000
O 40.301000 16.019719 57.619000
H 40.929000 15.439719 58.050000
H 39.668000 16.237719 58.303000
O -5.080000 10.842719 63.632000
H -4.891000 10.863719 64.570000
H -4.905000 9.938719 63.371000
O -10.747000 21.651719 51.742000
H -11.561000 22.064719 51.454000
H -10.793000 21.670719 52.697000
O 47.922000 11.204719 59.105000
H 47.810000 10.305719 58.795000
H 47.562000 11.747719 58.404000
O 44.143000 13.360719 57.925000
H 44.990000 13.333719 57.480000
H 44.315000 12.989719 58.790000
O 40.208000 14.939719 63.092000
H 40.917000 15.020719 63.729000
H 40.507000 15.440719 62.333000
O 37.015000 25.499719 57.017000
H 36.129000 25.151719 57.119000
H 37.584000 24.816719 57.374000
O 43.343000 10.526719 54.925000
H 44.282000 10.439719 55.089000
H 43.256000 10.438719 53.976000
O 48.016000 16.884719 35.371000
H 47.146000 17.005719 35.752000
H 47.999000 17.401719 34.565000
O -12.429000 23.241719 56.787000
H -12.550000 22.348719 56.462000
H -13.186000 23.396719 57.351000
O 34.811000 8.555719 56.930000
H 35.442000 9.121719 56.487000
H 34.189000 8.307719 56.246000
O 46.908000 4.619719 64.823000
H 46.786000 5.550719 65.011000
H 47.430000 4.603719 64.020000
O 48.272000 20.915719 55.853000
H 48.095000 20.018719 56.136000
H 47.585000 21.106719 55.215000
O 42.378000 9.430719 57.870000
H 42.230000 8.537719 57.560000
H 43.044000 9.339719 58.552000
O 34.045000 5.348719 61.370000
H 33.447000 5.718719 62.018000
H 34.745000 5.996719 61.292000
O 40.778000 16.313719 60.979000
H 41.150000 15.713719 60.333000
H 39.914000 16.535719 60.632000
O 32.625000 6.611719 63.366000
H 32.463000 7.520719 63.113000
H 31.754000 6.249719 63.529000
O 41.116000 12.406719 61.110000
H 41.841000 12.141719 61.677000
H 40.363000 12.470719 61.698000
O 31.837000 22.763719 37.999000
H 32.257000 22.114719 37.434000
H 32.340000 23.565719 37.859000
O 49.834000 12.979719 60.386000
H 49.324000 12.277719 59.981000
H 49.254000 13.341719 61.056000
O 52.504000 9.707719 60.850000
H 51.642000 9.825719 60.453000
H 52.805000 10.595719 61.042000
O 41.107000 22.348719 63.226000
H 40.167000 22.514719 63.292000
H 41.258000 22.188719 62.294000
O 46.854000 18.832719 56.575000
H 45.934000 18.659719 56.376000
H 46.868000 19.003719 57.517000
O 39.594000 19.514719 59.587000
H 39.024000 19.341719 60.336000
H 40.251000 20.125719 59.921000
O 45.961000 7.161719 61.118000
H 45.365000 6.414719 61.183000
H 45.449000 7.838719 60.677000
O 32.904000 20.922719 36.143000
H 32.883000 21.476719 35.363000
H 32.221000 20.269719 35.993000
O 45.053000 23.654719 56.803000
H 44.207000 23.741719 57.242000
H 45.511000 22.974719 57.297000
O 31.644000 4.631719 59.918000
H 32.378000 4.897719 60.473000
H 31.970000 4.735719 59.024000
O 35.926000 3.966719 54.024000
H 36.104000 4.855719 54.331000
H 36.337000 3.399719 54.677000
O 46.887000 14.760719 60.230000
H 46.123000 15.336719 60.211000
H 47.127000 14.711719 61.156000
O 38.098000 3.522719 37.648000
H 38.811000 4.062719 37.991000
H 37.850000 2.958719 38.381000
O 47.507000 17.892719 53.660000
H 48.428000 18.149719 53.632000
H 47.173000 18.281719 54.468000
O 39.127000 9.162719 58.735000
H 38.993000 9.037719 57.796000
H 39.990000 9.570719 58.802000
O 44.552000 23.249719 62.618000
H 44.075000 22.504719 62.983000
H 44.115000 23.431719 61.786000
O -3.222000 11.964719 61.800000
H -2.620000 12.421719 62.387000
H -3.850000 11.537719 62.384000
O 42.032000 24.884719 64.468000
H 42.316000 25.608719 63.911000
H 41.793000 24.189719 63.855000
O 36.524000 10.221719 55.791000
H 36.958000 10.940719 56.250000
H 37.162000 9.507719 55.804000
O 39.308000 7.404719 36.850000
H 38.380000 7.307719 36.636000
H 39.529000 6.602719 37.325000
O 37.884000 6.909719 59.990000
H 37.099000 6.600719 59.538000
H 37.941000 7.838719 59.764000
O 47.485000 18.482719 63.031000
H 48.014000 18.489719 62.233000
H 47.387000 19.406719 63.262000
O 42.860000 4.638719 59.369000
H 43.312000 5.018719 60.122000
H 43.487000 4.014719 59.003000
O 44.275000 10.223719 52.368000
H 44.024000 11.093719 52.056000
H 45.228000 10.260719 52.440000
O 37.743000 16.079719 53.779000
H 37.676000 15.366719 53.144000
H 36.859000 16.441719 53.828000
O 44.709000 18.343719 60.857000
H 44.653000 17.663719 60.186000
H 43.799000 18.582719 61.033000
O 39.305000 6.336719 57.564000
H 38.891000 6.495719 58.412000
H 38.930000 7.001719 56.986000
O 32.993000 7.355719 55.233000
H 32.952000 7.355719 54.276000
H 32.512000 6.570719 55.493000
O 42.289000 10.155719 35.553000
H 41.677000 9.633719 35.033000
H 42.299000 9.730719 36.410000
O 46.552000 8.614719 37.715000
H 46.423000 9.520719 37.996000
H 46.937000 8.179719 38.476000
O 43.254000 11.917719 62.737000
H 43.323000 11.183719 63.348000
H 43.739000 12.627719 63.158000
O 38.545000 14.366719 55.811000
H 38.324000 15.000719 55.129000
H 39.223000 14.799719 56.330000
O 44.321000 18.404719 55.646000
H 44.421000 17.857719 54.868000
H 43.391000 18.342719 55.866000
O 44.950000 9.553719 59.265000
H 45.759000 9.338719 58.801000
H 45.119000 10.408719 59.661000
O 39.569000 10.587719 63.465000
H 40.109000 9.823719 63.263000
H 38.777000 10.224719 63.861000
O 42.017000 3.856719 54.957000
H 42.524000 4.290719 55.644000
H 42.659000 3.323719 54.487000
O 35.985000 13.748719 37.785000
H 36.582000 13.110719 37.393000
H 36.299000 13.850719 38.683000
O 36.138000 7.454719 63.790000
H 35.779000 7.806719 62.975000
H 36.721000 6.748719 63.510000
O 49.607000 7.092719 62.078000
H 50.198000 7.679719 61.608000
H 48.895000 7.658719 62.379000
O 41.579000 8.527719 38.015000
H 40.765000 8.264719 37.585000
H 41.296000 8.995719 38.800000
O 42.922000 13.363719 55.523000
H 43.206000 12.456719 55.414000
H 43.125000 13.570719 56.436000
O 43.773000 22.248719 60.048000
H 43.350000 22.814719 59.403000
H 44.520000 21.870719 59.584000
O 37.071000 9.979719 60.161000
H 36.974000 10.881719 60.465000
H 37.934000 9.957719 59.746000
O -1.316000 5.455719 63.432000
H -0.670000 4.750719 63.458000
H -1.851000 5.320719 64.214000
O 34.120000 15.638719 36.514000
H 34.330000 16.443719 36.988000
H 34.899000 15.090719 36.615000
O 38.659000 16.579719 64.819000
H 39.069000 15.887719 64.300000
H 37.865000 16.803719 64.334000
O 37.136000 9.916719 64.480000
H 36.356000 10.416719 64.717000
H 36.800000 9.065719 64.198000
O 39.970000 10.665719 52.281000
H 39.037000 10.520719 52.124000
H 40.121000 10.326719 53.163000
O 41.972000 14.441719 59.324000
H 41.419000 13.825719 59.804000
H 42.616000 13.889719 58.879000
O 48.185000 20.862719 64.361000
H 48.155000 21.379719 63.556000
H 49.102000 20.597719 64.442000
O -3.673000 15.213719 64.727000
H -4.628000 15.279719 64.717000
H -3.442000 15.209719 65.656000
O 44.152000 5.277719 52.821000
H 43.283000 5.117719 52.452000
H 44.037000 5.161719 53.764000
O 46.029000 21.885719 58.582000
H 46.510000 21.093719 58.820000
H 46.352000 22.553719 59.188000
O 44.724000 12.703719 60.448000
H 44.139000 12.818719 61.197000
H 45.470000 13.273719 60.637000
O 41.696000 18.123719 56.285000
H 41.549000 17.687719 55.446000
H 41.296000 17.540719 56.931000
O 38.720000 21.881719 50.114000
H 38.771000 20.940719 50.278000
H 37.788000 22.088719 50.190000
O 42.257000 18.625719 62.008000
H 41.745000 17.986719 61.511000
H 41.933000 18.546719 62.905000
O 46.347000 21.868719 54.317000
H 46.178000 22.770719 54.586000
H 45.480000 21.501719 54.146000
O 41.415000 21.149719 60.923000
H 42.302000 21.413719 60.675000
H 41.539000 20.360719 61.450000
O 38.550000 3.994719 64.830000
H 38.228000 3.946719 65.730000
H 37.820000 3.676719 64.298000
O 35.586000 20.253719 57.351000
H 34.955000 19.568719 57.571000
H 35.057000 20.954719 56.970000
O 34.235000 18.046719 63.789000
H 33.742000 17.226719 63.797000
H 34.152000 18.386719 64.679000
O 47.613000 15.933719 51.940000
H 47.480000 16.711719 52.483000
H 47.682000 16.272719 51.048000
O -10.516000 19.015719 58.308000
H -11.112000 18.369719 57.929000
H -9.899000 18.497719 58.826000
O 40.247000 10.095719 55.043000
H 41.156000 10.165719 55.333000
H 39.798000 10.818719 55.482000
O 35.438000 12.977719 56.720000
H 34.978000 12.249719 57.140000
H 34.751000 13.464719 56.265000
O 38.976000 21.443719 45.525000
H 39.607000 22.161719 45.564000
H 38.154000 21.828719 45.828000
O 38.546000 22.629719 63.661000
H 38.120000 21.801719 63.439000
H 37.886000 23.297719 63.475000
O 45.150000 13.928719 63.465000
H 45.333000 14.850719 63.282000
H 44.740000 13.932719 64.330000
O 43.925000 16.320719 50.435000
H 43.153000 16.874719 50.554000
H 44.359000 16.676719 49.660000
O -10.425000 20.259719 64.368000
H -10.216000 19.923719 63.497000
H -9.985000 19.657719 64.969000
O 31.572000 13.758719 59.971000
H 31.983000 13.201719 59.311000
H 31.445000 13.183719 60.726000
O 47.366000 7.287719 35.584000
H 48.075000 6.744719 35.928000
H 47.025000 7.751719 36.350000
O 35.264000 8.017719 61.428000
H 34.439000 8.394719 61.122000
H 35.938000 8.470719 60.921000
O 37.246000 18.830719 60.906000
H 37.325000 17.985719 61.348000
H 36.327000 18.879719 60.643000
O 38.371000 8.108719 55.866000
H 39.025000 8.695719 55.487000
H 37.975000 7.670719 55.112000
O 44.270000 5.166719 61.432000
H 43.631000 5.230719 62.142000
H 44.826000 4.426719 61.674000
O 36.701000 3.743719 59.146000
H 37.128000 3.970719 59.972000
H 36.106000 4.473719 58.975000
O 33.650000 18.135719 57.575000
H 32.805000 18.222719 58.017000
H 34.009000 17.311719 57.904000
O 42.912000 25.620719 60.254000
H 42.143000 25.435719 59.715000
H 43.504000 26.096719 59.672000
O 45.530000 25.225719 37.134000
H 46.464000 25.170719 37.335000
H 45.117000 25.443719 37.970000
O 41.831000 3.407719 44.526000
H 41.287000 2.906719 45.134000
H 41.248000 4.087719 44.187000
O -1.751000 26.252719 47.806000
H -2.167000 26.273719 48.668000
H -0.813000 26.209719 47.993000
O -11.254000 22.995719 46.638000
H -11.561000 22.159719 46.991000
H -10.411000 23.141719 47.068000
O 49.387000 20.412719 47.312000
H 48.819000 20.227719 46.564000
H 49.700000 19.553719 47.595000
O 34.468000 22.088719 44.234000
H 34.381000 22.294719 43.303000
H 34.522000 22.941719 44.664000
O 37.381000 20.681719 37.435000
H 38.171000 21.092719 37.084000
H 37.696000 19.889719 37.870000
O 32.578000 20.902719 51.446000
H 33.115000 20.826719 50.657000
H 33.090000 21.460719 52.032000
O 34.248000 22.672719 41.496000
H 34.689000 23.247719 40.871000
H 34.625000 21.807719 41.335000
O 46.357000 22.479719 44.110000
H 46.048000 22.848719 43.283000
H 47.240000 22.835719 44.217000
O 40.635000 23.686719 49.347000
H 39.916000 23.055719 49.379000
H 41.371000 23.232719 49.759000
O 41.919000 23.737719 42.337000
H 42.208000 22.913719 41.944000
H 42.009000 23.598719 43.280000
O 39.987000 25.601719 41.947000
H 40.827000 25.142719 41.950000
H 39.638000 25.458719 41.067000
O 33.212000 25.142719 38.274000
H 33.498000 25.760719 37.601000
H 33.840000 25.256719 38.987000
O 47.825000 21.191719 40.003000
H 48.292000 21.544719 39.245000
H 48.507000 21.044719 40.658000
O -2.371000 21.990719 38.375000
H -1.559000 22.488719 38.278000
H -2.827000 22.110719 37.542000
O 47.154000 24.509719 52.206000
H 47.810000 24.803719 51.574000
H 47.450000 24.866719 53.043000
O 39.569000 21.621719 36.286000
H 39.150000 22.064719 35.548000
H 40.398000 21.298719 35.933000
O 41.150000 26.427719 49.391000
H 42.029000 26.314719 49.754000
H 40.794000 25.540719 49.346000
O 47.417000 20.260719 45.449000
H 46.656000 20.097719 46.006000
H 47.111000 20.901719 44.807000
O 38.101000 24.296719 43.683000
H 38.106000 23.438719 43.259000
H 38.827000 24.769719 43.277000
O 35.466000 19.951719 35.667000
H 34.710000 20.297719 36.141000
H 36.221000 20.214719 36.194000
O 46.248000 23.480719 41.470000
H 46.651000 22.725719 41.042000
H 46.709000 24.236719 41.108000
O 42.870000 22.515719 50.295000
H 43.495000 22.830719 50.948000
H 43.395000 22.383719 49.505000
O 34.322000 24.602719 45.400000
H 33.721000 24.217719 46.038000
H 35.138000 24.728719 45.885000
O 43.997000 26.177719 39.117000
H 43.643000 26.872719 39.672000
H 43.322000 25.499719 39.121000
O 45.734000 26.317719 44.086000
H 46.462000 26.804719 43.699000
H 45.224000 26.012719 43.335000
O -12.475000 25.124719 42.018000
H -11.728000 25.356719 42.569000
H -13.039000 25.897719 42.039000
O 42.978000 20.987719 37.680000
H 43.880000 20.722719 37.859000
H 43.060000 21.771719 37.137000
O 41.204000 7.354719 44.566000
H 40.554000 8.050719 44.471000
H 41.927000 7.622719 43.998000
O 40.539000 24.099719 46.458000
H 41.447000 24.181719 46.168000
H 40.595000 24.041719 47.411000
O 42.845000 24.199719 44.885000
H 43.581000 23.592719 44.969000
H 43.253000 25.047719 44.706000
O 36.563000 26.034719 42.175000
H 37.080000 25.391719 42.659000
H 36.957000 26.877719 42.400000
O -1.882000 23.637719 44.845000
H -1.201000 24.191719 44.463000
H -1.694000 23.637719 45.783000
O 35.054000 16.620719 53.004000
H 34.613000 17.304719 53.508000
H 35.194000 17.010719 52.141000
O 44.166000 22.305719 47.830000
H 44.831000 22.986719 47.722000
H 43.905000 22.081719 46.937000
O -1.542000 22.694719 47.129000
H -1.093000 22.062719 46.567000
H -1.792000 22.191719 47.903000
O 33.267000 5.674719 49.660000
H 33.635000 4.791719 49.618000
H 32.345000 5.560719 49.430000
O 46.541000 4.773719 56.458000
H 47.367000 5.151719 56.758000
H 46.682000 4.594719 55.528000
O 36.188000 3.832719 51.192000
H 35.298000 3.726719 50.854000
H 36.068000 4.109719 52.100000
O 46.260000 25.366719 63.965000
H 45.730000 25.380719 64.762000
H 45.923000 24.623719 63.465000
O 34.257000 25.447719 50.816000
H 34.522000 24.711719 50.264000
H 35.052000 25.687719 51.293000
O 40.935000 24.625719 54.510000
H 40.622000 24.652719 53.605000
H 40.339000 24.020719 54.951000
O 41.740000 20.861719 56.836000
H 41.038000 21.411719 56.489000
H 41.475000 19.967719 56.620000
O 38.283000 22.604719 39.700000
H 39.133000 22.203719 39.521000
H 37.914000 22.782719 38.835000
O 48.349000 22.561719 49.165000
H 48.385000 21.677719 48.801000
H 48.128000 22.432719 50.088000
O 40.528000 19.236719 46.039000
H 40.806000 18.922719 46.899000
H 39.816000 19.849719 46.225000
O 31.263000 8.777719 58.035000
H 30.331000 8.725719 58.248000
H 31.376000 8.168719 57.305000
O 35.407000 24.882719 40.024000
H 35.555000 25.226719 40.905000
H 36.207000 25.097719 39.544000
O 40.178000 25.433719 38.927000
H 40.543000 26.314719 39.013000
H 40.942000 24.856719 38.925000
O -12.443000 26.371719 35.065000
H -13.339000 26.490719 34.751000
H -12.538000 25.877719 35.880000
O 44.233000 25.322719 42.128000
H 43.411000 24.835719 42.191000
H 44.884000 24.664719 41.886000
O -6.664000 21.782719 47.266000
H -7.053000 21.079719 46.746000
H -6.402000 21.359719 48.084000
O 38.839000 5.064719 49.832000
H 38.262000 4.562719 50.408000
H 39.110000 4.438719 49.160000
O 41.169000 4.328719 40.711000
H 42.075000 4.615719 40.824000
H 41.239000 3.408719 40.457000
O 35.058000 7.835719 49.747000
H 34.436000 7.108719 49.701000
H 35.805000 7.545719 49.225000
O 43.937000 21.636719 45.289000
H 43.431000 21.123719 44.660000
H 44.779000 21.783719 44.857000
O -12.902000 26.047719 50.443000
H -13.381000 26.870719 50.349000
H -12.791000 25.730719 49.547000
O 37.796000 7.738719 53.166000
H 37.447000 8.276719 52.455000
H 38.556000 7.298719 52.785000
O 32.415000 23.895719 47.169000
H 32.597000 24.616719 47.772000
H 31.469000 23.765719 47.229000
O 45.925000 25.273719 46.529000
H 45.873000 25.702719 45.675000
H 46.838000 24.996719 46.603000
O 34.410000 22.450719 53.171000
H 35.088000 21.949719 53.623000
H 34.401000 23.297719 53.616000
O -2.023000 25.775719 41.381000
H -2.837000 26.085719 41.777000
H -2.106000 24.822719 41.374000
O 47.853000 21.896719 51.851000
H 47.238000 21.161719 51.849000
H 47.366000 22.614719 52.254000
O 46.805000 18.591719 49.241000
H 47.737000 18.379719 49.195000
H 46.679000 18.927719 50.128000
O 35.550000 19.611719 39.837000
H 35.882000 19.839719 40.706000
H 36.171000 20.014719 39.230000
O -8.882000 23.420719 47.630000
H -8.984000 23.221719 48.561000
H -8.186000 22.834719 47.334000
O 42.860000 19.830719 43.177000
H 43.518000 19.886719 42.484000
H 43.297000 19.355719 43.885000
O 34.893000 5.765719 42.505000
H 34.840000 4.852719 42.788000
H 35.815000 5.997719 42.613000
O -14.846000 25.960719 40.402000
H -14.274000 26.471719 39.829000
H -15.697000 26.393719 40.339000
O 49.295000 16.315719 42.866000
H 48.895000 16.366719 41.998000
H 48.661000 16.733719 43.448000
O -1.929000 6.674719 41.000000
H -2.200000 6.832719 41.905000
H -2.703000 6.301719 40.580000
O 37.686000 5.613719 62.275000
H 37.933000 6.070719 61.471000
H 38.519000 5.407719 62.700000
O 39.483000 3.834719 55.846000
H 40.339000 4.088719 55.500000
H 39.339000 4.423719 56.586000
O 51.814000 4.758719 58.224000
H 51.401000 4.026719 57.766000
H 52.657000 4.413719 58.518000
O 38.335000 23.720719 58.724000
H 38.454000 22.776719 58.830000
H 37.561000 23.924719 59.248000
O -6.478000 19.158719 55.740000
H -6.371000 19.966719 55.238000
H -7.373000 18.876719 55.553000
O 34.136000 24.860719 64.572000
H 34.775000 25.567719 64.657000
H 33.336000 25.212719 64.963000
O 51.543000 4.937719 62.531000
H 50.903000 5.573719 62.210000
H 52.372000 5.415719 62.540000
O -14.229000 24.833719 58.632000
H -13.612000 25.533719 58.846000
H -14.506000 24.489719 59.482000
O 36.774000 23.038719 51.946000
H 36.965000 23.964719 52.100000
H 35.913000 22.902719 52.342000
O 36.680000 6.195719 36.813000
H 37.035000 5.307719 36.853000
H 36.186000 6.219719 35.993000
O -1.399000 19.473719 38.280000
H -1.787000 20.321719 38.062000
H -0.924000 19.216719 37.489000
O 42.612000 23.308719 57.798000
H 41.843000 23.847719 57.613000
H 42.323000 22.411719 57.626000
O 35.668000 23.750719 60.064000
H 35.866000 23.666719 60.997000
H 35.008000 23.077719 59.897000
O 39.651000 22.478719 55.949000
H 39.177000 22.467719 56.780000
H 39.135000 21.916719 55.371000
O 36.369000 24.355719 62.880000
H 36.437000 25.123719 62.312000
H 35.480000 24.395719 63.232000
O 37.550000 24.111719 36.445000
H 36.787000 24.493719 36.012000
H 38.299000 24.553719 36.046000
O 48.159000 4.586719 62.450000
H 48.632000 5.418719 62.435000
H 48.460000 4.125719 61.667000
O 43.977000 24.143719 54.295000
H 44.329000 23.880719 55.145000
H 43.027000 24.104719 54.406000
O 34.759000 25.006719 54.315000
H 34.630000 25.036719 55.263000
H 34.628000 25.909719 54.026000
O 32.889000 22.533719 64.033000
H 33.442000 23.225719 64.393000
H 32.316000 22.982719 63.412000
O 36.456000 16.693719 63.155000
H 36.030000 16.009719 62.639000
H 35.767000 17.339719 63.312000
O 40.947000 3.121719 60.461000
H 41.578000 3.666719 59.990000
H 40.727000 3.629719 61.242000
O 36.769000 20.493719 63.231000
H 36.343000 20.171719 64.026000
H 37.109000 19.707719 62.805000
O -10.793000 24.801719 53.674000
H -10.189000 24.327719 54.247000
H -11.663000 24.534719 53.970000
O 44.328000 26.463719 56.592000
H 44.525000 25.561719 56.339000
H 43.433000 26.608719 56.287000
O -0.639000 23.596719 61.293000
H -0.611000 23.193719 60.425000
H -1.544000 23.480719 61.582000
O 40.768000 25.488719 58.624000
H 40.003000 24.961719 58.393000
H 40.969000 25.982719 57.828000
O 44.198000 5.841719 55.563000
H 43.488000 6.009719 56.182000
H 44.800000 5.269719 56.039000
O 40.172000 22.964719 52.448000
H 39.750000 22.688719 51.634000
H 40.818000 22.281719 52.627000
O -9.874000 23.549719 56.995000
H -9.653000 22.636719 56.814000
H -10.825000 23.591719 56.896000
O -9.045000 21.095719 57.034000
H -8.233000 21.218719 57.526000
H -9.440000 20.310719 57.414000
O 42.048000 6.432719 57.267000
H 41.111000 6.248719 57.204000
H 42.293000 6.130719 58.142000
O 40.040000 25.551719 36.284000
H 40.471000 25.514719 37.138000
H 40.752000 25.455719 35.652000
O 31.858000 24.810719 51.757000
H 31.731000 25.757719 51.810000
H 32.766000 24.704719 51.475000
O 40.625000 11.408719 58.325000
H 41.310000 10.820719 58.007000
H 40.821000 11.526719 59.254000
O 36.082000 26.623719 35.360000
H 36.079000 27.262719 34.647000
H 35.417000 26.942719 35.970000
O -4.635000 8.692719 61.972000
H -4.888000 9.049719 61.121000
H -4.905000 7.774719 61.938000
O -13.140000 24.937719 37.313000
H -13.305000 24.097719 36.886000
H -12.795000 24.704719 38.175000
O 33.556000 22.470719 56.225000
H 33.090000 22.967719 55.552000
H 32.907000 21.852719 56.560000
O 41.401000 4.511719 52.345000
H 41.262000 4.234719 53.250000
H 40.770000 5.218719 52.211000
O -13.303000 25.061719 54.918000
H -13.158000 24.311719 55.495000
H -13.483000 25.790719 55.512000
O 46.653000 23.544719 60.790000
H 46.011000 23.520719 61.500000
H 47.469000 23.250719 61.195000
O 33.031000 4.513719 57.528000
H 33.056000 3.603719 57.233000
H 32.428000 4.945719 56.923000
O 49.472000 14.572719 64.607000
H 50.294000 14.683719 64.129000
H 49.332000 15.413719 65.042000
O 53.232000 3.990719 44.917000
H 52.283000 3.871719 44.959000
H 53.445000 4.500719 45.699000
O 47.124000 6.509719 45.160000
H 47.779000 6.765719 44.512000
H 46.391000 6.175719 44.643000
O -5.094000 12.195719 48.039000
H -4.965000 11.280719 47.789000
H -4.244000 12.607719 47.887000
O -7.136000 13.037719 43.647000
H -7.128000 13.884719 44.094000
H -6.776000 13.221719 42.779000
O -2.095000 10.513719 44.682000
H -1.582000 9.930719 44.122000
H -1.575000 11.314719 44.735000
O -3.376000 12.711719 41.338000
H -3.813000 11.886719 41.548000
H -3.053000 13.033719 42.179000
O -4.177000 13.967719 54.843000
H -4.623000 13.341719 54.272000
H -3.329000 13.563719 55.027000
O -9.960000 20.872719 43.731000
H -10.372000 21.611719 44.178000
H -9.901000 20.190719 44.400000
O -5.275000 9.532719 47.579000
H -5.216000 9.641719 46.630000
H -4.552000 8.944719 47.799000
O -7.344000 20.091719 37.200000
H -8.137000 20.566719 36.951000
H -6.850000 20.712719 37.735000
O 32.931000 12.309719 58.116000
H 32.392000 11.720719 57.588000
H 33.672000 11.771719 58.395000
O -5.281000 16.415719 40.619000
H -4.917000 17.187719 41.052000
H -5.934000 16.766719 40.012000
O 48.415000 17.767719 45.629000
H 47.779000 17.125719 45.313000
H 48.056000 18.613719 45.358000
O -7.395000 25.622719 47.432000
H -7.961000 26.121719 48.022000
H -7.791000 24.751719 47.399000
O -7.177000 17.786719 39.101000
H -7.306000 18.675719 38.770000
H -7.878000 17.664719 39.741000
O 53.404000 9.512719 47.967000
H 54.356000 9.418719 47.945000
H 53.101000 9.075719 47.171000
O -8.909000 22.115719 36.840000
H -8.557000 22.389719 35.993000
H -8.397000 22.605719 37.483000
O -7.101000 15.668719 53.365000
H -7.395000 15.367719 52.504000
H -6.575000 16.446719 53.180000
O 50.313000 17.492719 39.127000
H 49.976000 17.791719 38.282000
H 49.532000 17.358719 39.663000
O 51.136000 14.470719 50.546000
H 52.091000 14.537719 50.533000
H 50.885000 14.780719 51.416000
O 51.945000 11.240719 37.787000
H 52.063000 10.293719 37.858000
H 51.033000 11.387719 38.038000
O 31.549000 3.855719 43.201000
H 31.161000 3.037719 43.510000
H 31.185000 3.978719 42.324000
O 53.209000 5.452719 47.114000
H 52.380000 5.023719 47.327000
H 52.956000 6.318719 46.794000
O 30.699000 10.735719 53.837000
H 31.156000 11.302719 53.216000
H 30.909000 9.846719 53.549000
O -4.010000 7.203719 48.713000
H -4.021000 7.169719 49.670000
H -4.850000 6.827719 48.450000
O 34.154000 7.845719 35.694000
H 34.582000 7.519719 34.903000
H 33.285000 7.443719 35.680000
O 51.435000 13.266719 45.122000
H 52.154000 13.001719 45.696000
H 50.665000 13.271719 45.690000
O -7.525000 25.696719 52.609000
H -7.161000 25.008719 52.052000
H -7.792000 25.242719 53.409000
O 52.394000 6.269719 41.437000
H 51.982000 6.081719 40.594000
H 51.738000 6.016719 42.087000
O -5.783000 14.005719 41.454000
H -4.908000 13.625719 41.372000
H -5.710000 14.865719 41.040000
O -8.744000 21.313719 41.415000
H -9.161000 21.136719 42.258000
H -9.226000 20.772719 40.790000
O 54.904000 9.411719 39.929000
H 54.647000 10.154719 40.474000
H 54.147000 9.256719 39.363000
O -4.241000 17.221719 49.097000
H -3.839000 17.457719 48.261000
H -5.167000 17.438719 48.988000
O 31.868000 19.099719 40.245000
H 31.246000 19.180719 39.522000
H 32.426000 19.874719 40.170000
O 44.087000 7.700719 51.377000
H 44.248000 8.556719 51.774000
H 44.112000 7.086719 52.110000
O -5.843000 16.656719 64.988000
H -6.502000 16.774719 65.672000
H -6.322000 16.263719 64.258000
O -5.898000 20.920719 49.639000
H -5.056000 20.479719 49.749000
H -5.889000 21.620719 50.292000
O -2.427000 12.515719 48.295000
H -2.450000 11.622719 47.949000
H -2.366000 12.403719 49.243000
O 54.912000 7.370719 44.166000
H 55.187000 7.363719 43.249000
H 55.554000 7.928719 44.605000
O 51.155000 6.408719 38.945000
H 51.367000 6.505719 38.017000
H 50.892000 5.493719 39.038000
O -6.598000 17.596719 43.998000
H -7.183000 17.648719 43.242000
H -5.723000 17.504719 43.619000
O -3.637000 16.564719 44.527000
H -3.307000 15.671719 44.424000
H -3.398000 17.004719 43.712000
O 31.242000 4.089719 45.868000
H 31.949000 3.599719 46.287000
H 31.347000 3.911719 44.933000
O 52.278000 8.802719 64.666000
H 52.741000 8.338719 63.968000
H 51.489000 9.142719 64.245000
O 30.949000 9.950719 42.065000
H 30.004000 9.849719 41.948000
H 31.333000 9.504719 41.310000
O 35.319000 17.318719 42.607000
H 35.554000 18.232719 42.447000
H 35.496000 16.876719 41.777000
O 51.225000 12.907719 40.620000
H 50.669000 13.060719 41.384000
H 51.917000 12.328719 40.938000
O -1.574000 17.093719 42.411000
H -1.510000 16.695719 41.543000
H -1.276000 17.993719 42.286000
O 53.864000 5.334719 35.406000
H 54.319000 5.299719 34.564000
H 54.565000 5.336719 36.058000
O -6.455000 14.971719 45.406000
H -6.083000 15.664719 44.861000
H -7.242000 15.361719 45.786000
O 48.296000 4.823719 46.714000
H 48.534000 5.308719 47.504000
H 47.945000 5.487719 46.121000
O 52.385000 15.146719 39.778000
H 51.973000 14.346719 40.103000
H 51.655000 15.688719 39.480000
O 55.399000 7.000719 41.473000
H 55.261000 7.831719 41.018000
H 54.540000 6.578719 41.470000
O 31.605000 15.000719 55.841000
H 31.016000 14.295719 55.571000
H 32.483000 14.630719 55.743000
O -1.727000 8.972719 37.852000
H -2.475000 8.900719 38.446000
H -1.866000 9.799719 37.390000
O 53.060000 9.537719 50.773000
H 52.942000 10.431719 51.096000
H 53.277000 9.644719 49.847000
O -8.974000 23.131719 50.406000
H -9.590000 22.479719 50.741000
H -9.396000 23.972719 50.583000
O -3.437000 15.279719 37.675000
H -3.364000 15.984719 38.318000
H -4.341000 14.975719 37.753000
O 52.900000 8.028719 45.863000
H 52.112000 8.187719 45.344000
H 53.621000 8.126719 45.242000
O -0.793000 17.364719 49.144000
H -0.871000 18.052719 48.483000
H -1.142000 16.581719 48.718000
O -8.440000 16.178719 46.763000
H -9.140000 15.877719 47.342000
H -8.892000 16.649719 46.064000
O 51.553000 11.863719 51.890000
H 50.725000 11.626719 51.472000
H 51.639000 12.803719 51.734000
O 31.710000 5.422719 52.099000
H 32.462000 5.760719 51.612000
H 31.206000 4.931719 51.450000
O 50.736000 4.635719 48.245000
H 50.711000 3.683719 48.342000
H 50.254000 4.966719 49.003000
O -3.351000 13.769719 43.830000
H -4.117000 13.234719 44.041000
H -2.629000 13.350719 44.298000
O -3.161000 9.484719 41.677000
H -3.505000 9.097719 40.872000
H -3.182000 8.770719 42.314000
O 50.344000 11.490719 54.256000
H 50.809000 11.369719 53.428000
H 50.223000 10.603719 54.595000
O -5.807000 13.667719 50.428000
H -5.192000 14.400719 50.406000
H -5.493000 13.069719 49.749000
O -1.433000 7.046719 48.098000
H -2.238000 7.549719 48.224000
H -1.310000 7.025719 47.149000
O 42.426000 4.161719 37.402000
H 42.557000 3.244719 37.645000
H 42.653000 4.198719 36.473000
O 30.532000 13.058719 44.782000
H 30.590000 13.991719 44.575000
H 31.327000 12.873719 45.281000
O 33.893000 18.255719 54.832000
H 32.980000 18.180719 54.555000
H 33.866000 18.131719 55.781000
O 54.466000 8.179719 52.708000
H 54.775000 8.801719 53.367000
H 54.087000 8.726719 52.020000
O 40.653000 12.424719 35.362000
H 40.346000 12.163719 34.493000
H 41.421000 11.875719 35.520000
O 31.320000 15.636719 44.362000
H 30.915000 16.353719 43.875000
H 32.213000 15.588719 44.021000
O 51.598000 15.883719 44.279000
H 51.676000 15.028719 44.703000
H 50.657000 16.003719 44.153000
O 48.088000 5.317719 49.736000
H 47.268000 5.802719 49.639000
H 48.665000 5.913719 50.213000
O 49.776000 6.049719 54.379000
H 49.945000 5.168719 54.044000
H 50.597000 6.520719 54.239000
O -5.255000 12.189719 45.228000
H -6.109000 12.308719 44.811000
H -5.323000 12.665719 46.055000
O 49.355000 11.561719 38.865000
H 49.785000 12.078719 39.546000
H 49.402000 10.659719 39.182000
O -5.308000 24.824719 40.458000
H -5.866000 25.566719 40.223000
H -4.996000 25.030719 41.339000
O 57.673000 4.832719 51.266000
H 57.831000 5.769719 51.144000
H 57.343000 4.531719 50.420000
O 50.430000 8.769719 44.852000
H 50.727000 9.010719 43.975000
H 50.017000 9.562719 45.192000
O 49.374000 7.087719 51.352000
H 49.974000 7.800719 51.573000
H 49.750000 6.317719 51.779000
O 57.104000 5.973719 39.695000
H 56.521000 5.981719 40.454000
H 56.563000 5.636719 38.981000
O -6.397000 21.517719 53.938000
H -5.623000 21.269719 53.432000
H -6.635000 22.382719 53.605000
O 56.986000 3.628719 48.303000
H 56.624000 4.513719 48.261000
H 56.520000 3.145719 47.621000
O -3.315000 15.768719 52.830000
H -3.120000 16.563719 53.327000
H -3.582000 15.130719 53.492000
O 49.862000 8.959719 39.388000
H 49.031000 8.553719 39.633000
H 50.418000 8.226719 39.124000
O 53.458000 12.372719 46.937000
H 53.595000 11.574719 47.448000
H 54.266000 12.872719 47.052000
O -1.061000 15.795719 40.022000
H -0.119000 15.922719 40.137000
H -1.153000 14.866719 39.810000
O 35.925000 10.099719 38.070000
H 35.895000 10.104719 37.113000
H 35.917000 9.172719 38.306000
O 35.471000 17.320719 50.429000
H 36.115000 17.885719 50.001000
H 34.689000 17.390719 49.881000
O 48.221000 11.522719 42.263000
H 47.721000 11.815719 41.501000
H 48.862000 12.217719 42.410000
O -1.532000 21.495719 49.861000
H -0.642000 21.307719 50.157000
H -1.846000 22.173719 50.459000
O 33.464000 10.473719 39.204000
H 33.269000 9.621719 39.593000
H 34.365000 10.393719 38.890000
O -9.342000 21.540719 54.338000
H -9.465000 21.114719 55.186000
H -8.521000 21.178719 54.004000
O 34.747000 8.054719 45.126000
H 34.954000 8.255719 44.213000
H 35.225000 7.245719 45.308000
O -3.967000 17.861719 54.775000
H -3.288000 17.473719 55.328000
H -4.788000 17.522719 55.130000
O -7.817000 16.730719 36.797000
H -7.664000 17.192719 37.621000
H -7.812000 15.803719 37.036000
O 50.935000 9.798719 42.212000
H 50.193000 10.396719 42.120000
H 50.731000 9.070719 41.625000
O 35.972000 16.223719 40.217000
H 36.290000 15.324719 40.308000
H 36.595000 16.639719 39.622000
O -1.825000 13.016719 55.329000
H -1.922000 12.762719 56.247000
H -1.539000 12.216719 54.888000
O -2.206000 11.446719 36.658000
H -1.679000 11.776719 35.930000
H -1.942000 11.981719 37.407000
O -5.245000 12.475719 52.890000
H -4.654000 11.741719 52.718000
H -5.490000 12.794719 52.021000
O 35.253000 14.264719 45.802000
H 34.922000 14.823719 45.098000
H 35.610000 14.876719 46.446000
O -3.901000 18.646719 36.099000
H -3.753000 18.448719 37.024000
H -4.569000 18.019719 35.823000
O -6.617000 22.897719 42.544000
H -7.130000 22.206719 42.125000
H -6.006000 22.431719 43.114000
O -7.110000 17.012719 48.988000
H -7.501000 16.990719 48.115000
H -7.387000 17.851719 49.355000
O 53.518000 5.859719 51.401000
H 53.700000 5.009719 51.803000
H 54.020000 6.484719 51.924000
O 46.050000 11.812719 40.158000
H 46.111000 12.751719 40.336000
H 45.285000 11.726719 39.589000
O 31.394000 13.702719 35.805000
H 31.249000 14.558719 36.209000
H 31.919000 13.220719 36.444000
O 50.878000 4.588719 51.231000
H 51.694000 5.057719 51.058000
H 51.157000 3.727719 51.543000
O -3.969000 7.642719 51.391000
H -4.742000 7.980719 51.843000
H -3.414000 8.410719 51.257000
O -3.599000 19.515719 50.168000
H -3.771000 18.657719 49.779000
H -2.710000 19.732719 49.887000
O -1.845000 5.255719 36.285000
H -1.224000 5.980719 36.222000
H -1.378000 4.580719 36.778000
O -4.175000 8.739719 39.203000
H -5.044000 9.075719 39.426000
H -4.206000 7.814719 39.448000
O -5.703000 13.618719 38.202000
H -6.592000 13.814719 37.908000
H -5.783000 13.507719 39.149000
O -4.381000 19.905719 45.264000
H -4.815000 20.754719 45.348000
H -5.044000 19.334719 44.878000
O -4.892000 9.440719 45.043000
H -3.958000 9.246719 44.953000
H -4.952000 10.389719 44.930000
O 34.096000 11.989719 62.345000
H 33.192000 11.924719 62.035000
H 34.065000 11.669719 63.246000
O -7.918000 15.140719 50.671000
H -7.671000 15.831719 50.056000
H -7.210000 14.499719 50.608000
O -8.383000 16.763719 41.917000
H -8.842000 16.370719 42.659000
H -8.422000 16.098719 41.230000
O -1.927000 12.520719 51.056000
H -2.170000 13.444719 51.108000
H -0.994000 12.504719 51.272000
O 50.107000 4.843719 42.581000
H 50.283000 4.540719 43.472000
H 49.542000 5.607719 42.694000
O 30.963000 15.279719 47.137000
H 30.273000 14.617719 47.177000
H 31.093000 15.434719 46.202000
O 31.214000 16.034719 36.981000
H 30.687000 16.002719 37.779000
H 32.117000 15.942719 37.286000
O -3.538000 17.974719 46.762000
H -3.872000 18.705719 46.242000
H -3.594000 17.218719 46.177000
O 31.033000 7.595719 35.790000
H 31.048000 8.156719 35.015000
H 30.577000 8.113719 36.453000
O 53.141000 11.227719 41.329000
H 53.441000 11.729719 42.087000
H 52.448000 10.663719 41.673000
O -6.906000 15.670719 62.719000
H -6.518000 16.484719 62.399000
H -6.277000 14.991719 62.473000
O 46.644000 12.879719 56.990000
H 46.815000 13.726719 56.577000
H 46.616000 12.258719 56.263000
O 54.613000 9.403719 36.088000
H 54.069000 9.564719 35.317000
H 55.198000 10.159719 36.132000
O 45.963000 7.875719 55.659000
H 46.474000 7.633719 54.887000
H 45.334000 7.162719 55.764000
O 33.003000 15.383719 64.089000
H 32.208000 14.889719 64.292000
H 33.522000 15.344719 64.892000
O -5.981000 18.765719 59.002000
H -6.331000 19.647719 58.877000
H -5.963000 18.386719 58.123000
O -8.086000 14.075719 37.564000
H -8.345000 13.155719 37.628000
H -8.489000 14.492719 38.325000
O -9.115000 25.399719 59.284000
H -9.246000 24.769719 58.576000
H -8.557000 26.077719 58.901000
O -4.560000 20.923719 52.295000
H -3.900000 20.863719 52.986000
H -4.207000 20.394719 51.580000
O 48.005000 13.342719 37.136000
H 48.451000 13.369719 36.289000
H 48.638000 12.932719 37.727000
O -5.698000 15.930719 56.094000
H -5.218000 15.221719 55.666000
H -6.562000 15.917719 55.682000
O 47.151000 15.312719 55.876000
H 47.849000 15.899719 56.168000
H 47.548000 14.796719 55.175000
O 49.798000 16.840719 57.229000
H 50.400000 16.686719 56.500000
H 49.726000 15.990719 57.663000
O 51.813000 16.120719 63.577000
H 51.515000 16.087719 62.668000
H 52.680000 15.713719 63.561000
O 34.867000 15.721719 57.707000
H 34.394000 15.500719 58.510000
H 35.612000 15.121719 57.695000
O -2.632000 9.825719 50.705000
H -2.470000 10.713719 51.025000
H -1.784000 9.533719 50.371000
O 34.321000 5.520719 39.864000
H 33.496000 5.035719 39.884000
H 34.605000 5.547719 40.778000
O 31.531000 11.383719 61.414000
H 30.672000 10.960719 61.418000
H 32.067000 10.832719 60.844000
O 49.159000 18.136719 60.684000
H 49.175000 17.194719 60.856000
H 49.867000 18.277719 60.056000
O 56.227000 4.929719 53.627000
H 56.714000 4.949719 52.803000
H 55.372000 4.570719 53.391000
O 57.298000 6.340719 59.358000
H 57.906000 6.108719 60.060000
H 57.355000 5.611719 58.741000
O -0.541000 20.682719 56.667000
H -1.335000 20.813719 56.150000
H -0.635000 19.801719 57.031000
O -5.643000 17.982719 61.636000
H -5.784000 18.118719 60.699000
H -6.027000 18.755719 62.051000
O 48.575000 13.745719 54.314000
H 49.200000 13.020719 54.340000
H 47.901000 13.459719 53.698000
O 31.321000 22.203719 58.996000
H 32.238000 22.047719 59.221000
H 31.232000 21.866719 58.105000
O -6.442000 23.274719 51.132000
H -7.358000 23.239719 50.859000
H -6.005000 23.778719 50.445000
O -8.147000 24.512719 61.822000
H -7.655000 25.284719 62.102000
H -8.472000 24.739719 60.951000
O -1.399000 16.098719 62.178000
H -1.812000 15.275719 62.439000
H -0.973000 15.899719 61.344000
O 52.111000 13.153719 56.000000
H 51.505000 12.453719 55.759000
H 51.735000 13.532719 56.795000
O 52.238000 7.715719 54.172000
H 52.445000 7.482719 55.077000
H 53.084000 7.936719 53.782000
O -2.929000 18.480719 61.842000
H -2.517000 17.642719 62.052000
H -3.868000 18.301719 61.874000
O -2.699000 7.484719 57.272000
H -3.164000 8.181719 56.811000
H -3.250000 7.287719 58.030000
O 53.224000 6.764719 56.619000
H 52.889000 6.034719 57.141000
H 53.176000 7.520719 57.205000
O 46.997000 10.517719 52.776000
H 47.666000 10.373719 52.108000
H 46.864000 11.465719 52.781000
O -1.833000 6.328719 60.877000
H -1.499000 6.269719 61.772000
H -1.376000 5.633719 60.404000
O 36.929000 13.969719 58.682000
H 36.833000 13.443719 59.476000
H 36.451000 13.481719 58.012000
O -3.117000 16.617719 59.371000
H -3.134000 17.294719 60.047000
H -3.244000 15.797719 59.848000
O 34.312000 20.991719 62.085000
H 33.806000 21.479719 62.735000
H 35.139000 20.793719 62.524000
O -3.620000 10.343719 53.599000
H -2.690000 10.383719 53.818000
H -4.046000 10.061719 54.408000
O -4.883000 11.430719 36.347000
H -3.970000 11.384719 36.629000
H -5.243000 12.181719 36.819000
O 55.580000 6.063719 61.923000
H 55.873000 5.700719 61.087000
H 55.579000 5.316719 62.522000
O -5.059000 12.446719 57.155000
H -4.228000 12.404719 57.629000
H -4.822000 12.759719 56.282000
O 54.817000 10.484719 54.214000
H 55.320000 11.204719 53.835000
H 54.326000 10.885719 54.931000
O -7.830000 14.585719 60.136000
H -7.463000 14.980719 60.927000
H -7.300000 14.940719 59.422000
O 51.447000 14.285719 58.342000
H 50.938000 13.601719 58.778000
H 52.256000 14.343719 58.851000
O -10.124000 17.599719 35.845000
H -9.979000 17.265719 34.960000
H -9.441000 17.185719 36.373000
O -2.164000 13.074719 58.215000
H -1.611000 13.541719 58.842000
H -2.025000 12.148719 58.416000
O -1.644000 13.455719 63.673000
H -2.296000 14.065719 64.018000
H -0.934000 13.474719 64.315000
O 53.788000 12.071719 61.182000
H 53.635000 12.864719 60.668000
H 54.137000 12.388719 62.014000
O 31.309000 9.013719 63.477000
H 30.377000 9.171719 63.627000
H 31.451000 9.263719 62.564000
O 37.428000 9.825719 51.196000
H 37.564000 9.372719 50.364000
H 36.658000 10.374719 51.047000
O -3.978000 14.506719 60.841000
H -4.674000 14.508719 60.183000
H -3.722000 13.587719 60.916000
O 53.031000 11.925719 35.287000
H 52.451000 11.544719 34.627000
H 52.737000 11.543719 36.114000
O 53.866000 11.168719 56.711000
H 53.329000 11.913719 56.441000
H 54.627000 11.562719 57.137000
O 52.403000 15.730719 55.100000
H 53.094000 15.833719 54.446000
H 52.538000 14.852719 55.455000
O -11.182000 23.415719 59.554000
H -11.681000 24.230719 59.605000
H -11.469000 23.008719 58.737000
O -8.596000 17.968719 59.905000
H -7.724000 18.244719 59.623000
H -8.861000 18.628719 60.546000
O 43.897000 6.934719 38.408000
H 44.471000 7.604719 38.037000
H 43.012000 7.263719 38.252000
O -6.583000 13.063719 63.328000
H -7.052000 12.934719 64.152000
H -5.890000 12.402719 63.340000
O 53.168000 7.661719 62.443000
H 54.010000 7.378719 62.087000
H 52.832000 8.283719 61.797000
O 38.142000 16.853719 37.527000
H 38.424000 16.718719 36.622000
H 37.194000 16.974719 37.468000
O 34.991000 10.697719 58.462000
H 34.916000 10.023719 57.786000
H 35.802000 10.484719 58.924000
O 49.269000 18.991719 37.009000
H 48.499000 18.759719 36.491000
H 49.993000 18.537719 36.578000
O 31.310000 18.835719 53.208000
H 31.741000 19.399719 52.566000
H 31.176000 18.006719 52.749000
O -3.551000 14.962719 50.236000
H -3.817000 15.806719 49.872000
H -3.429000 15.130719 51.170000
O 45.833000 10.307719 63.642000
H 45.980000 10.600719 64.541000
H 46.649000 9.872719 63.395000
O 34.509000 18.426719 60.364000
H 34.067000 18.732719 61.156000
H 34.009000 17.657719 60.092000
O -3.429000 10.980719 59.167000
H -3.686000 11.573719 59.872000
H -4.117000 10.315719 59.150000
O 38.462000 16.474719 59.565000
H 37.872000 17.214719 59.421000
H 37.999000 15.723719 59.195000
O 56.921000 7.752719 36.278000
H 57.400000 8.123719 37.020000
H 56.172000 8.336719 36.161000
O -7.169000 21.451719 58.935000
H -6.651000 22.189719 58.614000
H -7.821000 21.849719 59.513000
O -5.725000 15.446719 58.676000
H -4.935000 15.965719 58.831000
H -5.801000 15.403719 57.723000
O 46.011000 10.566719 55.304000
H 46.077000 9.700719 55.706000
H 46.617000 10.533719 54.564000
O 47.252000 8.408719 58.047000
H 47.428000 7.699719 58.666000
H 46.810000 7.981719 57.313000
O -2.552000 20.147719 54.462000
H -3.177000 19.423719 54.510000
H -1.769000 19.763719 54.067000
O 34.661000 4.854719 64.941000
H 35.217000 4.282719 64.413000
H 34.174000 5.373719 64.302000
O 56.190000 9.017719 59.153000
H 56.424000 8.091719 59.091000
H 55.360000 9.087719 58.681000
O -2.320000 23.048719 54.109000
H -2.258000 23.120719 53.157000
H -2.546000 22.132719 54.267000
O -3.452000 23.692719 61.873000
H -3.641000 24.363719 61.218000
H -3.934000 22.921719 61.574000
O 33.308000 15.887719 59.933000
H 33.768000 15.624719 60.730000
H 32.711000 15.161719 59.750000
O 33.200000 9.344719 60.093000
H 32.599000 8.923719 59.479000
H 33.787000 9.859719 59.540000
O 50.817000 15.914719 60.983000
H 51.695000 16.177719 60.707000
H 50.696000 15.045719 60.600000
O 53.573000 8.999719 58.306000
H 53.500000 9.767719 57.739000
H 53.195000 9.279719 59.139000
O -4.458000 21.467719 60.527000
H -3.627000 21.059719 60.282000
H -4.949000 21.522719 59.707000
O -1.956000 16.770719 56.294000
H -2.124000 16.592719 57.220000
H -1.255000 16.162719 56.057000
O -1.780000 9.020719 60.646000
H -2.701000 9.178719 60.437000
H -1.697000 8.066719 60.660000
O 44.496000 15.950719 56.837000
H 44.192000 16.715719 56.348000
H 45.376000 15.782719 56.499000
O -4.391000 24.903719 54.517000
H -3.893000 25.495719 53.953000
H -3.861000 24.107719 54.557000
O -12.854000 24.679719 47.800000
H -13.152000 23.895719 48.259000
H -12.192000 24.361719 47.186000
O -10.161000 25.818719 43.203000
H -9.276000 25.738719 42.846000
H -10.152000 26.646719 43.683000
O 55.146000 5.675719 49.117000
H 54.545000 5.263719 48.497000
H 54.645000 5.741719 49.930000
O -1.384000 25.152719 58.525000
H -0.812000 25.486719 57.833000
H -0.915000 24.397719 58.880000
O -0.991000 19.751719 42.575000
H -0.404000 19.568719 41.842000
H -1.642000 20.355719 42.217000
O -1.287000 19.238719 47.072000
H -0.962000 19.505719 46.212000
H -2.127000 18.817719 46.891000
O -7.161000 26.322719 44.823000
H -6.296000 26.708719 44.683000
H -7.136000 25.999719 45.724000
O -4.428000 23.523719 47.347000
H -4.954000 22.899719 46.847000
H -3.606000 23.587719 46.861000
O -3.865000 22.576719 36.189000
H -4.504000 23.281719 36.292000
H -4.331000 21.899719 35.698000
O -7.757000 25.368719 42.103000
H -7.497000 25.792719 42.922000
H -7.108000 24.677719 41.975000
O -5.882000 23.673719 58.199000
H -5.165000 24.145719 58.623000
H -6.316000 24.331719 57.657000
O 32.071000 25.468719 56.720000
H 31.999000 25.132719 55.826000
H 32.842000 25.029719 57.079000
O -2.920000 6.899719 43.551000
H -2.243000 6.766719 44.215000
H -3.675000 6.408719 43.877000
O -4.450000 26.152719 42.673000
H -5.187000 26.673719 42.355000
H -4.144000 26.618719 43.451000
O -9.179000 19.857719 61.768000
H -8.364000 19.757719 62.259000
H -9.115000 20.727719 61.372000
O -6.570000 20.505719 62.649000
H -6.336000 20.769719 63.539000
H -6.052000 21.080719 62.085000
O -4.489000 20.301719 39.903000
H -3.944000 21.030719 39.608000
H -4.324000 20.242719 40.844000
O 31.785000 19.809719 44.990000
H 31.282000 19.841719 44.176000
H 32.487000 20.447719 44.863000
O 31.807000 24.008719 54.457000
H 30.983000 23.524719 54.510000
H 31.905000 24.215719 53.528000
O -3.133000 26.229719 50.048000
H -3.232000 26.346719 50.993000
H -3.981000 25.893719 49.757000
O -0.783000 4.915719 49.454000
H -1.197000 4.160719 49.035000
H -1.131000 5.672719 48.984000
O 44.213000 4.025719 49.372000
H 43.367000 3.837719 49.781000
H 44.362000 3.287719 48.781000
O -9.042000 23.664719 39.937000
H -8.798000 24.275719 40.633000
H -8.973000 22.799719 40.341000
O -6.255000 22.063719 38.928000
H -6.300000 22.661719 39.674000
H -5.804000 21.290719 39.267000
O 48.971000 5.899719 56.933000
H 49.840000 5.722719 57.292000
H 49.121000 6.035719 55.997000
O -9.150000 25.856719 38.431000
H -9.574000 25.109719 38.853000
H -9.842000 26.513719 38.354000
O -2.003000 23.814719 51.272000
H -2.370000 24.432719 50.639000
H -1.145000 24.179719 51.492000
O -12.529000 23.010719 43.989000
H -12.038000 23.073719 44.809000
H -12.370000 23.846719 43.550000
O -5.628000 20.566719 35.125000
H -6.334000 20.485719 35.767000
H -5.065000 19.810719 35.292000
O -10.965000 24.666719 62.832000
H -10.998000 25.030719 63.716000
H -10.121000 24.956719 62.485000
O 33.890000 4.051719 37.441000
H 34.110000 4.214719 36.524000
H 34.290000 4.779719 37.917000
O 31.480000 18.475719 36.192000
H 31.367000 17.527719 36.268000
H 30.772000 18.755719 35.612000
O 57.307000 3.756719 35.505000
H 58.092000 4.228719 35.782000
H 57.572000 2.836719 35.495000
O 56.174000 6.918719 55.660000
H 56.471000 6.492719 54.856000
H 55.220000 6.936719 55.583000
O -4.129000 18.215719 42.328000
H -3.243000 17.880719 42.187000
H -4.001000 19.117719 42.620000
O 50.933000 9.001719 52.305000
H 51.400000 8.548719 53.007000
H 51.611000 9.213719 51.664000
O -5.552000 24.933719 49.278000
H -6.340000 25.194719 48.803000
H -5.105000 24.327719 48.688000
O -8.668000 22.764719 64.123000
H -8.614000 23.267719 63.311000
H -9.450000 22.221719 64.018000
O 53.115000 8.705719 38.103000
H 53.660000 9.021719 37.382000
H 52.707000 7.908719 37.765000
O -3.000000 23.343719 40.527000
H -2.728000 22.979719 39.684000
H -3.813000 23.811719 40.335000
O 50.267000 4.051719 45.137000
H 50.075000 3.161719 44.841000
H 49.639000 4.210719 45.841000
O -3.284000 26.316719 64.433000
H -3.560000 26.363719 65.349000
H -3.307000 25.383719 64.223000
O -3.561000 20.931719 42.318000
H -3.906000 21.387719 43.085000
H -3.043000 21.592719 41.858000
O 53.775000 3.962719 42.297000
H 53.462000 4.054719 43.197000
H 53.508000 4.774719 41.866000
O -12.638000 22.729719 62.020000
H -12.133000 23.375719 62.515000
H -11.994000 22.306719 61.452000
O 56.023000 5.425719 37.167000
H 56.365000 6.160719 36.658000
H 56.270000 4.649719 36.663000
O 45.369000 4.247719 38.019000
H 44.723000 4.952719 38.065000
H 45.734000 4.314719 37.136000
O 56.613000 4.768719 57.180000
H 56.776000 4.081719 56.534000
H 56.637000 5.581719 56.677000
O 48.689000 3.480719 36.546000
H 48.031000 3.915719 36.003000
H 49.398000 3.268719 35.939000
O -0.584000 5.716719 56.296000
H -1.351000 6.040719 56.769000
H -0.826000 4.832719 56.023000
O -1.872000 19.301719 64.371000
H -2.557000 19.072719 64.999000
H -2.248000 19.087719 63.517000
O -2.835000 9.014719 64.007000
H -3.342000 9.093719 63.200000
H -3.246000 8.289719 64.479000
O -6.542000 25.802719 56.286000
H -5.856000 25.434719 55.729000
H -6.539000 26.738719 56.084000
O -8.321000 24.084719 54.505000
H -8.421000 24.446719 55.385000
H -8.573000 23.165719 54.593000
O -2.288000 20.020719 59.752000
H -2.408000 19.440719 60.504000
H -1.432000 20.425719 59.896000
O -3.888000 24.752719 59.497000
H -4.201000 25.655719 59.446000
H -3.048000 24.763719 59.038000
O 34.431000 24.534719 57.581000
H 34.200000 23.674719 57.229000
H 34.743000 24.354719 58.467000
O 50.260000 3.986719 38.824000
H 49.905000 3.763719 37.963000
H 49.553000 3.781719 39.436000
O 55.560000 3.801719 63.426000
H 56.288000 3.696719 64.039000
H 55.180000 2.925719 63.354000
O -9.041000 18.306719 55.083000
H -9.002000 17.349719 55.097000
H -9.788000 18.507719 54.518000
O 32.847000 26.399719 48.478000
H 33.292000 27.200719 48.753000
H 32.450000 26.058719 49.279000
O -9.058000 22.200719 60.755000
H -8.483000 22.870719 61.125000
H -9.834000 22.681719 60.467000
O -11.867000 26.147719 59.120000
H -10.934000 25.933719 59.086000
H -11.992000 26.785719 58.418000
O 54.473000 4.362719 58.621000
H 55.205000 4.758719 58.148000
H 54.859000 3.613719 59.076000
O -10.143000 25.703719 51.042000
H -10.069000 25.366719 51.935000
H -11.029000 26.061719 50.993000
O 33.352000 4.216719 54.411000
H 34.283000 4.201719 54.189000
H 32.916000 4.470719 53.598000
O 39.995000 5.139719 38.364000
H 40.663000 4.922719 37.713000
H 40.420000 4.976719 39.207000
O 31.168000 10.863719 56.567000
H 31.229000 10.041719 57.054000
H 30.862000 10.605719 55.698000
O 38.217000 21.088719 57.945000
H 38.734000 20.448719 58.435000
H 37.366000 20.667719 57.825000
O 51.692000 6.796719 66.378000
H 52.435000 6.269719 66.083000
H 51.650000 7.521719 65.755000
O 38.488000 11.847719 16.717000
H 39.219000 11.954719 17.326000
H 38.183000 12.738719 16.550000
O 35.849000 20.346719 14.750000
H 36.233000 20.280719 15.624000
H 35.165000 19.677719 14.737000
O 34.465000 8.207719 12.413000
H 33.530000 8.294719 12.228000
H 34.871000 8.098719 11.553000
O 44.283000 20.445719 13.627000
H 44.318000 19.701719 14.229000
H 43.394000 20.425719 13.272000
O 41.181000 18.479719 24.463000
H 40.443000 17.945719 24.756000
H 41.858000 18.337719 25.125000
O -8.736000 25.460719 65.831000
H -8.719000 24.503719 65.814000
H -8.848000 25.682719 66.755000
O 34.702000 11.073719 11.311000
H 34.565000 10.150719 11.523000
H 34.954000 11.476719 12.143000
O 46.652000 13.557719 12.434000
H 47.020000 14.397719 12.161000
H 45.781000 13.774719 12.767000
O 46.159000 11.802719 66.006000
H 46.742000 12.251719 66.618000
H 45.478000 12.445719 65.806000
O 41.938000 18.138719 10.685000
H 41.774000 18.392719 9.776000
H 41.076000 17.905719 11.028000
O -4.183000 9.515719 16.177000
H -4.582000 10.090719 16.830000
H -4.799000 8.788719 16.090000
O -5.721000 24.373719 66.223000
H -6.110000 24.285719 67.093000
H -5.512000 25.304719 66.146000
O 38.345000 11.757719 66.578000
H 39.141000 11.825719 66.050000
H 37.945000 10.932719 66.303000
O 38.827000 18.445719 13.002000
H 38.508000 17.677719 13.477000
H 38.575000 19.188719 13.550000
O 41.084000 8.947719 8.759000
H 41.415000 8.765719 9.639000
H 41.450000 9.803719 8.537000
O 43.732000 13.178719 65.679000
H 43.480000 12.346719 66.080000
H 42.978000 13.750719 65.821000
O 32.317000 14.776719 12.947000
H 32.205000 15.423719 12.251000
H 32.500000 15.296719 13.730000
O 48.738000 10.529719 10.503000
H 49.457000 10.100719 10.040000
H 48.179000 10.878719 9.808000
O 43.355000 21.320719 24.247000
H 43.649000 21.941719 24.913000
H 42.433000 21.535719 24.108000
O 36.930000 14.349719 11.885000
H 36.511000 13.635719 12.368000
H 36.247000 15.015719 11.802000
O 31.760000 8.460719 12.422000
H 31.564000 8.775719 11.540000
H 31.381000 7.581719 12.453000
O 47.306000 22.101719 66.571000
H 48.086000 21.998719 67.116000
H 47.536000 21.682719 65.741000
O 47.481000 6.994719 13.369000
H 48.374000 6.917719 13.707000
H 47.590000 7.101719 12.425000
O 39.845000 6.698719 11.933000
H 39.547000 6.401719 11.073000
H 40.576000 7.286719 11.743000
O 41.614000 14.903719 65.498000
H 41.070000 14.149719 65.729000
H 41.543000 15.490719 66.250000
O 43.317000 12.568719 12.147000
H 42.564000 12.892719 11.652000
H 43.636000 13.333719 12.626000
O 42.429000 6.060719 23.526000
H 42.710000 5.293719 24.025000
H 43.069000 6.736719 23.745000
O 45.517000 14.677719 67.408000
H 44.825000 14.085719 67.114000
H 46.324000 14.173719 67.303000
O 36.549000 12.453719 20.969000
H 35.813000 12.170719 21.511000
H 37.248000 12.643719 21.594000
O -6.042000 18.103719 12.911000
H -6.268000 18.583719 13.707000
H -5.116000 17.884719 13.017000
O 44.770000 23.428719 11.935000
H 44.539000 23.552719 12.856000
H 45.626000 23.847719 11.844000
O 44.034000 17.239719 13.207000
H 43.108000 17.268719 12.969000
H 44.479000 16.949719 12.410000
O 34.248000 14.629719 15.027000
H 34.412000 15.279719 14.344000
H 34.581000 15.033719 15.828000
O 44.193000 13.640719 9.451000
H 44.200000 14.482719 9.906000
H 44.881000 13.130719 9.878000
O 34.365000 22.794719 8.928000
H 33.695000 23.009719 8.278000
H 34.245000 21.859719 9.096000
O 44.338000 14.541719 13.581000
H 43.836000 14.208719 14.325000
H 44.183000 15.486719 13.590000
O 47.056000 4.261719 13.802000
H 46.181000 3.976719 13.537000
H 47.155000 5.127719 13.408000
O 33.331000 17.642719 8.784000
H 33.688000 17.280719 7.973000
H 32.420000 17.347719 8.799000
O 32.078000 12.214719 11.965000
H 32.927000 12.001719 11.579000
H 32.169000 13.119719 12.262000
O 50.252000 17.924719 12.922000
H 50.826000 18.229719 12.219000
H 50.411000 16.982719 12.971000
O 38.319000 21.092719 13.947000
H 38.557000 21.428719 13.083000
H 37.362000 21.070719 13.942000
O -10.106000 19.222719 10.481000
H -10.364000 19.981719 11.005000
H -9.153000 19.189719 10.559000
O 41.212000 17.159719 13.632000
H 40.430000 17.706719 13.557000
H 40.888000 16.322719 13.965000
O 48.057000 13.370719 22.735000
H 48.501000 13.846719 23.437000
H 47.151000 13.292719 23.033000
O 31.674000 8.986719 9.692000
H 32.063000 9.434719 8.941000
H 31.290000 8.190719 9.325000
O 35.946000 6.428719 18.084000
H 35.577000 7.271719 17.821000
H 36.303000 6.060719 17.275000
O 46.462000 11.173719 9.015000
H 45.813000 10.482719 9.154000
H 46.487000 11.291719 8.066000
O 41.593000 8.590719 11.508000
H 41.558000 9.497719 11.811000
H 42.528000 8.396719 11.437000
O -2.189000 23.522719 24.436000
H -2.356000 22.885719 23.741000
H -2.742000 23.234719 25.163000
O 35.628000 12.248719 13.603000
H 35.891000 11.628719 14.283000
H 35.232000 12.976719 14.081000
O 44.348000 16.093719 19.498000
H 43.544000 15.578719 19.567000
H 44.619000 15.994719 18.586000
O 50.447000 9.272719 8.952000
H 50.127000 8.524719 9.457000
H 51.401000 9.198719 8.994000
O -0.670000 18.265719 18.172000
H -1.095000 17.814719 17.442000
H -1.380000 18.447719 18.788000
O 36.827000 25.665719 12.162000
H 36.982000 26.513719 11.747000
H 37.096000 25.790719 13.072000
O 34.819000 10.847719 65.276000
H 34.366000 10.006719 65.214000
H 34.218000 11.408719 65.766000
O -11.738000 21.586719 67.645000
H -11.895000 20.703719 67.312000
H -10.870000 21.817719 67.316000
O -0.822000 16.645719 11.771000
H -1.619000 16.159719 11.984000
H -0.904000 16.841719 10.837000
O 39.109000 16.679719 8.996000
H 38.526000 16.596719 8.241000
H 39.156000 15.796719 9.362000
O 42.740000 18.201719 66.617000
H 42.445000 19.091719 66.813000
H 43.536000 18.321719 66.099000
O 43.717000 23.333719 66.092000
H 43.243000 24.013719 65.614000
H 44.437000 23.798719 66.519000
O 44.864000 18.917719 25.120000
H 44.588000 19.800719 24.877000
H 44.847000 18.425719 24.299000
O 35.493000 17.956719 67.527000
H 35.461000 18.684719 68.148000
H 35.596000 18.375719 66.672000
O 33.866000 20.145719 9.164000
H 34.786000 19.892719 9.089000
H 33.380000 19.359719 8.913000
O 40.913000 14.587719 14.050000
H 41.765000 14.309719 14.389000
H 40.278000 14.205719 14.657000
O 35.952000 6.492719 14.949000
H 36.387000 7.001719 14.265000
H 35.183000 7.011719 15.183000
O 46.275000 19.573719 11.914000
H 45.404000 19.490719 12.303000
H 46.843000 19.056719 12.486000
O 42.983000 3.765719 24.692000
H 43.883000 3.441719 24.709000
H 42.444000 2.975719 24.643000
O 45.561000 6.362719 9.506000
H 45.106000 5.528719 9.386000
H 45.133000 6.763719 10.262000
O 49.659000 18.050719 8.653000
H 50.318000 18.489719 9.192000
H 49.980000 17.153719 8.565000
O 45.469000 16.765719 23.085000
H 44.923000 17.009719 22.338000
H 46.248000 17.315719 23.002000
O 42.194000 20.512719 12.119000
H 42.363000 19.641719 11.759000
H 42.539000 21.115719 11.461000
O 38.888000 14.055719 9.816000
H 38.185000 13.887719 10.443000
H 39.692000 13.958719 10.326000
O 38.535000 19.154719 10.456000
H 38.620000 18.817719 11.348000
H 38.581000 18.376719 9.900000
O -7.570000 19.157719 10.722000
H -6.982000 18.739719 11.352000
H -7.053000 19.870719 10.347000
O 40.890000 13.239719 11.429000
H 40.869000 13.845719 12.170000
H 40.553000 12.415719 11.783000
O 40.811000 8.233719 24.232000
H 41.416000 7.508719 24.074000
H 40.208000 7.902719 24.898000
O 33.169000 12.383719 67.280000
H 33.019000 11.814719 68.035000
H 33.848000 12.992719 67.569000
O 46.845000 19.403719 19.400000
H 47.717000 19.252719 19.764000
H 46.262000 19.389719 20.159000
O 50.666000 11.004719 23.445000
H 50.954000 11.405719 22.625000
H 49.739000 11.235719 23.512000
O 44.045000 8.083719 24.238000
H 44.656000 8.746719 23.917000
H 43.482000 8.553719 24.853000
O 50.709000 14.949719 13.139000
H 49.935000 14.602719 13.583000
H 51.357000 15.055719 13.836000
O 38.663000 13.011719 22.445000
H 38.998000 12.192719 22.812000
H 39.290000 13.675719 22.730000
O 40.192000 4.688719 22.724000
H 39.917000 4.187719 23.493000
H 40.914000 5.232719 23.037000
O 47.657000 8.347719 23.053000
H 47.421000 7.920719 23.877000
H 47.129000 7.900719 22.392000
O 34.030000 21.503719 19.437000
H 34.779000 21.067719 19.030000
H 34.035000 21.194719 20.343000
O 34.725000 14.744719 22.003000
H 34.144000 15.009719 22.716000
H 34.727000 13.787719 22.037000
O 40.301000 16.019719 17.619000
H 40.929000 15.439719 18.050000
H 39.668000 16.237719 18.303000
O -5.080000 10.842719 23.632000
H -4.891000 10.863719 24.570000
H -4.905000 9.938719 23.371000
O -10.747000 21.651719 11.742000
H -11.561000 22.064719 11.454000
H -10.793000 21.670719 12.697000
O 47.922000 11.204719 19.105000
H 47.810000 10.305719 18.795000
H 47.562000 11.747719 18.404000
O 44.143000 13.360719 17.925000
H 44.990000 13.333719 17.480000
H 44.315000 12.989719 18.790000
O 40.208000 14.939719 23.092000
H 40.917000 15.020719 23.729000
H 40.507000 15.440719 22.333000
O 37.015000 25.499719 17.017000
H 36.129000 25.151719 17.119000
H 37.584000 24.816719 17.374000
O 43.343000 10.526719 14.925000
H 44.282000 10.439719 15.089000
H 43.256000 10.438719 13.976000
O 48.016000 16.884719 65.371000
H 47.146000 17.005719 65.752000
H 47.999000 17.401719 64.565000
O -12.429000 23.241719 16.787000
H -12.550000 22.348719 16.462000
H -13.186000 23.396719 17.351000
O 34.811000 8.555719 16.930000
H 35.442000 9.121719 16.487000
H 34.189000 8.307719 16.246000
O 46.908000 4.619719 24.823000
H 46.786000 5.550719 25.011000
H 47.430000 4.603719 24.020000
O 48.272000 20.915719 15.853000
H 48.095000 20.018719 16.136000
H 47.585000 21.106719 15.215000
O 42.378000 9.430719 17.870000
H 42.230000 8.537719 17.560000
H 43.044000 9.339719 18.552000
O 34.045000 5.348719 21.370000
H 33.447000 5.718719 22.018000
H 34.745000 5.996719 21.292000
O 40.778000 16.313719 20.979000
H 41.150000 15.713719 20.333000
H 39.914000 16.535719 20.632000
O 32.625000 6.611719 23.366000
H 32.463000 7.520719 23.113000
H 31.754000 6.249719 23.529000
O 41.116000 12.406719 21.110000
H 41.841000 12.141719 21.677000
H 40.363000 12.470719 21.698000
O 31.837000 22.763719 67.999000
H 32.257000 22.114719 67.434000
H 32.340000 23.565719 67.859000
O 49.834000 12.979719 20.386000
H 49.324000 12.277719 19.981000
H 49.254000 13.341719 21.056000
O 52.504000 9.707719 20.850000
H 51.642000 9.825719 20.453000
H 52.805000 10.595719 21.042000
O 41.107000 22.348719 23.226000
H 40.167000 22.514719 23.292000
H 41.258000 22.188719 22.294000
O 46.854000 18.832719 16.575000
H 45.934000 18.659719 16.376000
H 46.868000 19.003719 17.517000
O 39.594000 19.514719 19.587000
H 39.024000 19.341719 20.336000
H 40.251000 20.125719 19.921000
O 45.961000 7.161719 21.118000
H 45.365000 6.414719 21.183000
H 45.449000 7.838719 20.677000
O 32.904000 20.922719 66.143000
H 32.883000 21.476719 65.363000
H 32.221000 20.269719 65.993000
O 45.053000 23.654719 16.803000
H 44.207000 23.741719 17.242000
H 45.511000 22.974719 17.297000
O 31.644000 4.631719 19.918000
H 32.378000 4.897719 20.473000
H 31.970000 4.735719 19.024000
O 35.926000 3.966719 14.024000
H 36.104000 4.855719 14.331000
H 36.337000 3.399719 14.677000
O 46.887000 14.760719 20.230000
H 46.123000 15.336719 20.211000
H 47.127000 14.711719 21.156000
O 38.098000 3.522719 67.648000
H 38.811000 4.062719 67.991000
H 37.850000 2.958719 68.381000
O 47.507000 17.892719 13.660000
H 48.428000 18.149719 13.632000
H 47.173000 18.281719 14.468000
O 39.127000 9.162719 18.735000
H 38.993000 9.037719 17.796000
H 39.990000 9.570719 18.802000
O 44.552000 23.249719 22.618000
H 44.075000 22.504719 22.983000
H 44.115000 23.431719 21.786000
O -3.222000 11.964719 21.800000
H -2.620000 12.421719 22.387000
H -3.850000 11.537719 22.384000
O 42.032000 24.884719 24.468000
H 42.316000 25.608719 23.911000
H 41.793000 24.189719 23.855000
O 36.524000 10.221719 15.791000
H 36.958000 10.940719 16.250000
H 37.162000 9.507719 15.804000
O 39.308000 7.404719 66.850000
H 38.380000 7.307719 66.636000
H 39.529000 6.602719 67.325000
O 37.884000 6.909719 19.990000
H 37.099000 6.600719 19.538000
H 37.941000 7.838719 19.764000
O 47.485000 18.482719 23.031000
H 48.014000 18.489719 22.233000
H 47.387000 19.406719 23.262000
O 42.860000 4.638719 19.369000
H 43.312000 5.018719 20.122000
H 43.487000 4.014719 19.003000
O 44.275000 10.223719 12.368000
H 44.024000 11.093719 12.056000
H 45.228000 10.260719 12.440000
O 37.743000 16.079719 13.779000
H 37.676000 15.366719 13.144000
H 36.859000 16.441719 13.828000
O 44.709000 18.343719 20.857000
H 44.653000 17.663719 20.186000
H 43.799000 18.582719 21.033000
O 39.305000 6.336719 17.564000
H 38.891000 6.495719 18.412000
H 38.930000 7.001719 16.986000
O 32.993000 7.355719 15.233000
H 32.952000 7.355719 14.276000
H 32.512000 6.570719 15.493000
O 42.289000 10.155719 65.553000
H 41.677000 9.633719 65.033000
H 42.299000 9.730719 66.410000
O 46.552000 8.614719 67.715000
H 46.423000 9.520719 67.996000
H 46.937000 8.179719 68.476000
O 43.254000 11.917719 22.737000
H 43.323000 11.183719 23.348000
H 43.739000 12.627719 23.158000
O 38.545000 14.366719 15.811000
H 38.324000 15.000719 15.129000
H 39.223000 14.799719 16.330000
O 44.321000 18.404719 15.646000
H 44.421000 17.857719 14.868000
H 43.391000 18.342719 15.866000
O 44.950000 9.553719 19.265000
H 45.759000 9.338719 18.801000
H 45.119000 10.408719 19.661000
O 39.569000 10.587719 23.465000
H 40.109000 9.823719 23.263000
H 38.777000 10.224719 23.861000
O 42.017000 3.856719 14.957000
H 42.524000 4.290719 15.644000
H 42.659000 3.323719 14.487000
O 35.985000 13.748719 67.785000
H 36.582000 13.110719 67.393000
H 36.299000 13.850719 68.683000
O 36.138000 7.454719 23.790000
H 35.779000 7.806719 22.975000
H 36.721000 6.748719 23.510000
O 49.607000 7.092719 22.078000
H 50.198000 7.679719 21.608000
H 48.895000 7.658719 22.379000
O 42.922000 13.363719 15.523000
H 43.206000 12.456719 15.414000
H 43.125000 13.570719 16.436000
O 43.773000 22.248719 20.048000
H 43.350000 22.814719 19.403000
H 44.520000 21.870719 19.584000
O 37.071000 9.979719 20.161000
H 36.974000 10.881719 20.465000
H 37.934000 9.957719 19.746000
O -1.316000 5.455719 23.432000
H -0.670000 4.750719 23.458000
H -1.851000 5.320719 24.214000
O 34.120000 15.638719 66.514000
H 34.330000 16.443719 66.988000
H 34.899000 15.090719 66.615000
O 38.659000 16.579719 24.819000
H 39.069000 15.887719 24.300000
H 37.865000 16.803719 24.334000
O 37.136000 9.916719 24.480000
H 36.356000 10.416719 24.717000
H 36.800000 9.065719 24.198000
O 39.970000 10.665719 12.281000
H 39.037000 10.520719 12.124000
H 40.121000 10.326719 13.163000
O 41.972000 14.441719 19.324000
H 41.419000 13.825719 19.804000
H 42.616000 13.889719 18.879000
O 48.185000 20.862719 24.361000
H 48.155000 21.379719 23.556000
H 49.102000 20.597719 24.442000
O -3.673000 15.213719 24.727000
H -4.628000 15.279719 24.717000
H -3.442000 15.209719 25.656000
O 44.152000 5.277719 12.821000
H 43.283000 5.117719 12.452000
H 44.037000 5.161719 13.764000
O 46.029000 21.885719 18.582000
H 46.510000 21.093719 18.820000
H 46.352000 22.553719 19.188000
O 44.724000 12.703719 20.448000
H 44.139000 12.818719 21.197000
H 45.470000 13.273719 20.637000
O 41.696000 18.123719 16.285000
H 41.549000 17.687719 15.446000
H 41.296000 17.540719 16.931000
O 38.720000 21.881719 10.114000
H 38.771000 20.940719 10.278000
H 37.788000 22.088719 10.190000
O 42.257000 18.625719 22.008000
H 41.745000 17.986719 21.511000
H 41.933000 18.546719 22.905000
O 46.347000 21.868719 14.317000
H 46.178000 22.770719 14.586000
H 45.480000 21.501719 14.146000
O 41.415000 21.149719 20.923000
H 42.302000 21.413719 20.675000
H 41.539000 20.360719 21.450000
O 38.550000 3.994719 24.830000
H 38.228000 3.946719 25.730000
H 37.820000 3.676719 24.298000
O 35.586000 20.253719 17.351000
H 34.955000 19.568719 17.571000
H 35.057000 20.954719 16.970000
O 34.235000 18.046719 23.789000
H 33.742000 17.226719 23.797000
H 34.152000 18.386719 24.679000
O 47.613000 15.933719 11.940000
H 47.480000 16.711719 12.483000
H 47.682000 16.272719 11.048000
O -10.516000 19.015719 18.308000
H -11.112000 18.369719 17.929000
H -9.899000 18.497719 18.826000
O 40.247000 10.095719 15.043000
H 41.156000 10.165719 15.333000
H 39.798000 10.818719 15.482000
O 35.438000 12.977719 16.720000
H 34.978000 12.249719 17.140000
H 34.751000 13.464719 16.265000
O 38.546000 22.629719 23.661000
H 38.120000 21.801719 23.439000
H 37.886000 23.297719 23.475000
O 45.150000 13.928719 23.465000
H 45.333000 14.850719 23.282000
H 44.740000 13.932719 24.330000
O 43.925000 16.320719 10.435000
H 43.153000 16.874719 10.554000
H 44.359000 16.676719 9.660000
O -10.425000 20.259719 24.368000
H -10.216000 19.923719 23.497000
H -9.985000 19.657719 24.969000
O 31.572000 13.758719 19.971000
H 31.983000 13.201719 19.311000
H 31.445000 13.183719 20.726000
O 47.366000 7.287719 65.584000
H 48.075000 6.744719 65.928000
H 47.025000 7.751719 66.350000
O 35.264000 8.017719 21.428000
H 34.439000 8.394719 21.122000
H 35.938000 8.470719 20.921000
O 37.246000 18.830719 20.906000
H 37.325000 17.985719 21.348000
H 36.327000 18.879719 20.643000
O 38.371000 8.108719 15.866000
H 39.025000 8.695719 15.487000
H 37.975000 7.670719 15.112000
O 44.270000 5.166719 21.432000
H 43.631000 5.230719 22.142000
H 44.826000 4.426719 21.674000
O 36.701000 3.743719 19.146000
H 37.128000 3.970719 19.972000
H 36.106000 4.473719 18.975000
O 33.650000 18.135719 17.575000
H 32.805000 18.222719 18.017000
H 34.009000 17.311719 17.904000
O 42.912000 25.620719 20.254000
H 42.143000 25.435719 19.715000
H 43.504000 26.096719 19.672000
O 45.530000 25.225719 67.134000
H 46.464000 25.170719 67.335000
H 45.117000 25.443719 67.970000
O 37.381000 20.681719 67.435000
H 38.171000 21.092719 67.084000
H 37.696000 19.889719 67.870000
O 32.578000 20.902719 11.446000
H 33.115000 20.826719 10.657000
H 33.090000 21.460719 12.032000
O 40.635000 23.686719 9.347000
H 39.916000 23.055719 9.379000
H 41.371000 23.232719 9.759000
O 47.154000 24.509719 12.206000
H 47.810000 24.803719 11.574000
H 47.450000 24.866719 13.043000
O 39.569000 21.621719 66.286000
H 39.150000 22.064719 65.548000
H 40.398000 21.298719 65.933000
O 41.150000 26.427719 9.391000
H 42.029000 26.314719 9.754000
H 40.794000 25.540719 9.346000
O 35.466000 19.951719 65.667000
H 34.710000 20.297719 66.141000
H 36.221000 20.214719 66.194000
O 42.870000 22.515719 10.295000
H 43.495000 22.830719 10.948000
H 43.395000 22.383719 9.505000
O 42.978000 20.987719 67.680000
H 43.880000 20.722719 67.859000
H 43.060000 21.771719 67.137000
O 35.054000 16.620719 13.004000
H 34.613000 17.304719 13.508000
H 35.194000 17.010719 12.141000
O 33.267000 5.674719 9.660000
H 33.635000 4.791719 9.618000
H 32.345000 5.560719 9.430000
O 46.541000 4.773719 16.458000
H 47.367000 5.151719 16.758000
H 46.682000 4.594719 15.528000
O 36.188000 3.832719 11.192000
H 35.298000 3.726719 10.854000
H 36.068000 4.109719 12.100000
O 46.260000 25.366719 23.965000
H 45.730000 25.380719 24.762000
H 45.923000 24.623719 23.465000
O 34.257000 25.447719 10.816000
H 34.522000 24.711719 10.264000
H 35.052000 25.687719 11.293000
O 40.935000 24.625719 14.510000
H 40.622000 24.652719 13.605000
H 40.339000 24.020719 14.951000
O 41.740000 20.861719 16.836000
H 41.038000 21.411719 16.489000
H 41.475000 19.967719 16.620000
O 48.349000 22.561719 9.165000
H 48.385000 21.677719 8.801000
H 48.128000 22.432719 10.088000
O 31.263000 8.777719 18.035000
H 30.331000 8.725719 18.248000
H 31.376000 8.168719 17.305000
O -12.443000 26.371719 65.065000
H -13.339000 26.490719 64.751000
H -12.538000 25.877719 65.880000
O 38.839000 5.064719 9.832000
H 38.262000 4.562719 10.408000
H 39.110000 4.438719 9.160000
O 35.058000 7.835719 9.747000
H 34.436000 7.108719 9.701000
H 35.805000 7.545719 9.225000
O -12.902000 26.047719 10.443000
H -13.381000 26.870719 10.349000
H -12.791000 25.730719 9.547000
O 37.796000 7.738719 13.166000
H 37.447000 8.276719 12.455000
H 38.556000 7.298719 12.785000
O 34.410000 22.450719 13.171000
H 35.088000 21.949719 13.623000
H 34.401000 23.297719 13.616000
O 47.853000 21.896719 11.851000
H 47.238000 21.161719 11.849000
H 47.366000 22.614719 12.254000
O 46.805000 18.591719 9.241000
H 47.737000 18.379719 9.195000
H 46.679000 18.927719 10.128000
O 37.686000 5.613719 22.275000
H 37.933000 6.070719 21.471000
H 38.519000 5.407719 22.700000
O 39.483000 3.834719 15.846000
H 40.339000 4.088719 15.500000
H 39.339000 4.423719 16.586000
O 51.814000 4.758719 18.224000
H 51.401000 4.026719 17.766000
H 52.657000 4.413719 18.518000
O 38.335000 23.720719 18.724000
H 38.454000 22.776719 18.830000
H 37.561000 23.924719 19.248000
O -6.478000 19.158719 15.740000
H -6.371000 19.966719 15.238000
H -7.373000 18.876719 15.553000
O 34.136000 24.860719 24.572000
H 34.775000 25.567719 24.657000
H 33.336000 25.212719 24.963000
O 51.543000 4.937719 22.531000
H 50.903000 5.573719 22.210000
H 52.372000 5.415719 22.540000
O -14.229000 24.833719 18.632000
H -13.612000 25.533719 18.846000
H -14.506000 24.489719 19.482000
O 36.774000 23.038719 11.946000
H 36.965000 23.964719 12.100000
H 35.913000 22.902719 12.342000
O 36.680000 6.195719 66.813000
H 37.035000 5.307719 66.853000
H 36.186000 6.219719 65.993000
O 42.612000 23.308719 17.798000
H 41.843000 23.847719 17.613000
H 42.323000 22.411719 17.626000
O 35.668000 23.750719 20.064000
H 35.866000 23.666719 20.997000
H 35.008000 23.077719 19.897000
O 39.651000 22.478719 15.949000
H 39.177000 22.467719 16.780000
H 39.135000 21.916719 15.371000
O 36.369000 24.355719 22.880000
H 36.437000 25.123719 22.312000
H 35.480000 24.395719 23.232000
O 37.550000 24.111719 66.445000
H 36.787000 24.493719 66.012000
H 38.299000 24.553719 66.046000
O 48.159000 4.586719 22.450000
H 48.632000 5.418719 22.435000
H 48.460000 4.125719 21.667000
O 43.977000 24.143719 14.295000
H 44.329000 23.880719 15.145000
H 43.027000 24.104719 14.406000
O 34.759000 25.006719 14.315000
H 34.630000 25.036719 15.263000
H 34.628000 25.909719 14.026000
O 32.889000 22.533719 24.033000
H 33.442000 23.225719 24.393000
H 32.316000 22.982719 23.412000
O 36.456000 16.693719 23.155000
H 36.030000 16.009719 22.639000
H 35.767000 17.339719 23.312000
O 40.947000 3.121719 20.461000
H 41.578000 3.666719 19.990000
H 40.727000 3.629719 21.242000
O 36.769000 20.493719 23.231000
H 36.343000 20.171719 24.026000
H 37.109000 19.707719 22.805000
O -10.793000 24.801719 13.674000
H -10.189000 24.327719 14.247000
H -11.663000 24.534719 13.970000
O 44.328000 26.463719 16.592000
H 44.525000 25.561719 16.339000
H 43.433000 26.608719 16.287000
O -0.639000 23.596719 21.293000
H -0.611000 23.193719 20.425000
H -1.544000 23.480719 21.582000
O 40.768000 25.488719 18.624000
H 40.003000 24.961719 18.393000
H 40.969000 25.982719 17.828000
O 44.198000 5.841719 15.563000
H 43.488000 6.009719 16.182000
H 44.800000 5.269719 16.039000
O 40.172000 22.964719 12.448000
H 39.750000 22.688719 11.634000
H 40.818000 22.281719 12.627000
O -9.874000 23.549719 16.995000
H -9.653000 22.636719 16.814000
H -10.825000 23.591719 16.896000
O -9.045000 21.095719 17.034000
H -8.233000 21.218719 17.526000
H -9.440000 20.310719 17.414000
O 42.048000 6.432719 17.267000
H 41.111000 6.248719 17.204000
H 42.293000 6.130719 18.142000
O 40.040000 25.551719 66.284000
H 40.471000 25.514719 67.138000
H 40.752000 25.455719 65.652000
O 31.858000 24.810719 11.757000
H 31.731000 25.757719 11.810000
H 32.766000 24.704719 11.475000
O 40.625000 11.408719 18.325000
H 41.310000 10.820719 18.007000
H 40.821000 11.526719 19.254000
O 36.082000 26.623719 65.360000
H 36.079000 27.262719 64.647000
H 35.417000 26.942719 65.970000
O -4.635000 8.692719 21.972000
H -4.888000 9.049719 21.121000
H -4.905000 7.774719 21.938000
O -13.140000 24.937719 67.313000
H -13.305000 24.097719 66.886000
H -12.795000 24.704719 68.175000
O 33.556000 22.470719 16.225000
H 33.090000 22.967719 15.552000
H 32.907000 21.852719 16.560000
O 41.401000 4.511719 12.345000
H 41.262000 4.234719 13.250000
H 40.770000 5.218719 12.211000
O -13.303000 25.061719 14.918000
H -13.158000 24.311719 15.495000
H -13.483000 25.790719 15.512000
O 46.653000 23.544719 20.790000
H 46.011000 23.520719 21.500000
H 47.469000 23.250719 21.195000
O 33.031000 4.513719 17.528000
H 33.056000 3.603719 17.233000
H 32.428000 4.945719 16.923000
O 49.472000 14.572719 24.607000
H 50.294000 14.683719 24.129000
H 49.332000 15.413719 25.042000
O -4.177000 13.967719 14.843000
H -4.623000 13.341719 14.272000
H -3.329000 13.563719 15.027000
O -7.344000 20.091719 67.200000
H -8.137000 20.566719 66.951000
H -6.850000 20.712719 67.735000
O 32.931000 12.309719 18.116000
H 32.392000 11.720719 17.588000
H 33.672000 11.771719 18.395000
O -8.909000 22.115719 66.840000
H -8.557000 22.389719 65.993000
H -8.397000 22.605719 67.483000
O -7.101000 15.668719 13.365000
H -7.395000 15.367719 12.504000
H -6.575000 16.446719 13.180000
O 31.503000 25.066719 65.580000
H 30.971000 24.291719 65.397000
H 31.229000 25.705719 64.922000
O 51.136000 14.470719 10.546000
H 52.091000 14.537719 10.533000
H 50.885000 14.780719 11.416000
O 51.945000 11.240719 67.787000
H 52.063000 10.293719 67.858000
H 51.033000 11.387719 68.038000
O 30.699000 10.735719 13.837000
H 31.156000 11.302719 13.216000
H 30.909000 9.846719 13.549000
O -4.010000 7.203719 8.713000
H -4.021000 7.169719 9.670000
H -4.850000 6.827719 8.450000
O 34.154000 7.845719 65.694000
H 34.582000 7.519719 64.903000
H 33.285000 7.443719 65.680000
O -7.525000 25.696719 12.609000
H -7.161000 25.008719 12.052000
H -7.792000 25.242719 13.409000
O -4.241000 17.221719 9.097000
H -3.839000 17.457719 8.261000
H -5.167000 17.438719 8.988000
O 44.087000 7.700719 11.377000
H 44.248000 8.556719 11.774000
H 44.112000 7.086719 12.110000
O -5.843000 16.656719 24.988000
H -6.502000 16.774719 25.672000
H -6.322000 16.263719 24.258000
O -5.898000 20.920719 9.639000
H -5.056000 20.479719 9.749000
H -5.889000 21.620719 10.292000
O 52.278000 8.802719 24.666000
H 52.741000 8.338719 23.968000
H 51.489000 9.142719 24.245000
O 53.864000 5.334719 65.406000
H 54.319000 5.299719 64.564000
H 54.565000 5.336719 66.058000
O 31.605000 15.000719 15.841000
H 31.016000 14.295719 15.571000
H 32.483000 14.630719 15.743000
O -1.727000 8.972719 67.852000
H -2.475000 8.900719 68.446000
H -1.866000 9.799719 67.390000
O 53.060000 9.537719 10.773000
H 52.942000 10.431719 11.096000
H 53.277000 9.644719 9.847000
O -8.974000 23.131719 10.406000
H -9.590000 22.479719 10.741000
H -9.396000 23.972719 10.583000
O -3.437000 15.279719 67.675000
H -3.364000 15.984719 68.318000
H -4.341000 14.975719 67.753000
O -0.793000 17.364719 9.144000
H -0.871000 18.052719 8.483000
H -1.142000 16.581719 8.718000
O 51.553000 11.863719 11.890000
H 50.725000 11.626719 11.472000
H 51.639000 12.803719 11.734000
O 31.710000 5.422719 12.099000
H 32.462000 5.760719 11.612000
H 31.206000 4.931719 11.450000
O 50.344000 11.490719 14.256000
H 50.809000 11.369719 13.428000
H 50.223000 10.603719 14.595000
O -5.807000 13.667719 10.428000
H -5.192000 14.400719 10.406000
H -5.493000 13.069719 9.749000
O 42.426000 4.161719 67.402000
H 42.557000 3.244719 67.645000
H 42.653000 4.198719 66.473000
O 33.893000 18.255719 14.832000
H 32.980000 18.180719 14.555000
H 33.866000 18.131719 15.781000
O 54.466000 8.179719 12.708000
H 54.775000 8.801719 13.367000
H 54.087000 8.726719 12.020000
O 40.653000 12.424719 65.362000
H 40.346000 12.163719 64.493000
H 41.421000 11.875719 65.520000
O 48.088000 5.317719 9.736000
H 47.268000 5.802719 9.639000
H 48.665000 5.913719 10.213000
O 49.776000 6.049719 14.379000
H 49.945000 5.168719 14.044000
H 50.597000 6.520719 14.239000
O 57.673000 4.832719 11.266000
H 57.831000 5.769719 11.144000
H 57.343000 4.531719 10.420000
O 49.374000 7.087719 11.352000
H 49.974000 7.800719 11.573000
H 49.750000 6.317719 11.779000
O -6.397000 21.517719 13.938000
H -5.623000 21.269719 13.432000
H -6.635000 22.382719 13.605000
O -3.315000 15.768719 12.830000
H -3.120000 16.563719 13.327000
H -3.582000 15.130719 13.492000
O 35.471000 17.320719 10.429000
H 36.115000 17.885719 10.001000
H 34.689000 17.390719 9.881000
O -1.532000 21.495719 9.861000
H -0.642000 21.307719 10.157000
H -1.846000 22.173719 10.459000
O -9.342000 21.540719 14.338000
H -9.465000 21.114719 15.186000
H -8.521000 21.178719 14.004000
O -3.967000 17.861719 14.775000
H -3.288000 17.473719 15.328000
H -4.788000 17.522719 15.130000
O -7.817000 16.730719 66.797000
H -7.664000 17.192719 67.621000
H -7.812000 15.803719 67.036000
O -1.825000 13.016719 15.329000
H -1.922000 12.762719 16.247000
H -1.539000 12.216719 14.888000
O -2.206000 11.446719 66.658000
H -1.679000 11.776719 65.930000
H -1.942000 11.981719 67.407000
O -5.245000 12.475719 12.890000
H -4.654000 11.741719 12.718000
H -5.490000 12.794719 12.021000
O -3.901000 18.646719 66.099000
H -3.753000 18.448719 67.024000
H -4.569000 18.019719 65.823000
O -7.110000 17.012719 8.988000
H -7.501000 16.990719 8.115000
H -7.387000 17.851719 9.355000
O 53.518000 5.859719 11.401000
H 53.700000 5.009719 11.803000
H 54.020000 6.484719 11.924000
O 31.394000 13.702719 65.805000
H 31.249000 14.558719 66.209000
H 31.919000 13.220719 66.444000
O 50.878000 4.588719 11.231000
H 51.694000 5.057719 11.058000
H 51.157000 3.727719 11.543000
O -3.969000 7.642719 11.391000
H -4.742000 7.980719 11.843000
H -3.414000 8.410719 11.257000
O -3.599000 19.515719 10.168000
H -3.771000 18.657719 9.779000
H -2.710000 19.732719 9.887000
O -1.845000 5.255719 66.285000
H -1.224000 5.980719 66.222000
H -1.378000 4.580719 66.778000
O 34.096000 11.989719 22.345000
H 33.192000 11.924719 22.035000
H 34.065000 11.669719 23.246000
O -7.918000 15.140719 10.671000
H -7.671000 15.831719 10.056000
H -7.210000 14.499719 10.608000
O -1.927000 12.520719 11.056000
H -2.170000 13.444719 11.108000
H -0.994000 12.504719 11.272000
O 31.214000 16.034719 66.981000
H 30.687000 16.002719 67.779000
H 32.117000 15.942719 67.286000
O 31.033000 7.595719 65.790000
H 31.048000 8.156719 65.015000
H 30.577000 8.113719 66.453000
O -6.906000 15.670719 22.719000
H -6.518000 16.484719 22.399000
H -6.277000 14.991719 22.473000
O 46.644000 12.879719 16.990000
H 46.815000 13.726719 16.577000
H 46.616000 12.258719 16.263000
O 54.613000 9.403719 66.088000
H 54.069000 9.564719 65.317000
H 55.198000 10.159719 66.132000
O 45.963000 7.875719 15.659000
H 46.474000 7.633719 14.887000
H 45.334000 7.162719 15.764000
O 33.003000 15.383719 24.089000
H 32.208000 14.889719 24.292000
H 33.522000 15.344719 24.892000
O -5.981000 18.765719 19.002000
H -6.331000 19.647719 18.877000
H -5.963000 18.386719 18.123000
O -8.086000 14.075719 67.564000
H -8.345000 13.155719 67.628000
H -8.489000 14.492719 68.325000
O -9.115000 25.399719 19.284000
H -9.246000 24.769719 18.576000
H -8.557000 26.077719 18.901000
O -4.560000 20.923719 12.295000
H -3.900000 20.863719 12.986000
H -4.207000 20.394719 11.580000
O 48.005000 13.342719 67.136000
H 48.451000 13.369719 66.289000
H 48.638000 12.932719 67.727000
O -5.698000 15.930719 16.094000
H -5.218000 15.221719 15.666000
H -6.562000 15.917719 15.682000
O 47.151000 15.312719 15.876000
H 47.849000 15.899719 16.168000
H 47.548000 14.796719 15.175000
O 49.798000 16.840719 17.229000
H 50.400000 16.686719 16.500000
H 49.726000 15.990719 17.663000
O 51.813000 16.120719 23.577000
H 51.515000 16.087719 22.668000
H 52.680000 15.713719 23.561000
O 34.867000 15.721719 17.707000
H 34.394000 15.500719 18.510000
H 35.612000 15.121719 17.695000
O -2.632000 9.825719 10.705000
H -2.470000 10.713719 11.025000
H -1.784000 9.533719 10.371000
O 31.531000 11.383719 21.414000
H 30.672000 10.960719 21.418000
H 32.067000 10.832719 20.844000
O 49.159000 18.136719 20.684000
H 49.175000 17.194719 20.856000
H 49.867000 18.277719 20.056000
O 56.227000 4.929719 13.627000
H 56.714000 4.949719 12.803000
H 55.372000 4.570719 13.391000
O 57.298000 6.340719 19.358000
H 57.906000 6.108719 20.060000
H 57.355000 5.611719 18.741000
O -0.541000 20.682719 16.667000
H -1.335000 20.813719 16.150000
H -0.635000 19.801719 17.031000
O -5.643000 17.982719 21.636000
H -5.784000 18.118719 20.699000
H -6.027000 18.755719 22.051000
O 48.575000 13.745719 14.314000
H 49.200000 13.020719 14.340000
H 47.901000 13.459719 13.698000
O 31.321000 22.203719 18.996000
H 32.238000 22.047719 19.221000
H 31.232000 21.866719 18.105000
O -6.442000 23.274719 11.132000
H -7.358000 23.239719 10.859000
H -6.005000 23.778719 10.445000
O -8.147000 24.512719 21.822000
H -7.655000 25.284719 22.102000
H -8.472000 24.739719 20.951000
O -1.399000 16.098719 22.178000
H -1.812000 15.275719 22.439000
H -0.973000 15.899719 21.344000
O 52.111000 13.153719 16.000000
H 51.505000 12.453719 15.759000
H 51.735000 13.532719 16.795000
O 52.238000 7.715719 14.172000
H 52.445000 7.482719 15.077000
H 53.084000 7.936719 13.782000
O -2.929000 18.480719 21.842000
H -2.517000 17.642719 22.052000
H -3.868000 18.301719 21.874000
O -2.699000 7.484719 17.272000
H -3.164000 8.181719 16.811000
H -3.250000 7.287719 18.030000
O 53.224000 6.764719 16.619000
H 52.889000 6.034719 17.141000
H 53.176000 7.520719 17.205000
O 46.997000 10.517719 12.776000
H 47.666000 10.373719 12.108000
H 46.864000 11.465719 12.781000
O -1.833000 6.328719 20.877000
H -1.499000 6.269719 21.772000
H -1.376000 5.633719 20.404000
O 36.929000 13.969719 18.682000
H 36.833000 13.443719 19.476000
H 36.451000 13.481719 18.012000
O -3.117000 16.617719 19.371000
H -3.134000 17.294719 20.047000
H -3.244000 15.797719 19.848000
O 34.312000 20.991719 22.085000
H 33.806000 21.479719 22.735000
H 35.139000 20.793719 22.524000
O -3.620000 10.343719 13.599000
H -2.690000 10.383719 13.818000
H -4.046000 10.061719 14.408000
O -4.883000 11.430719 66.347000
H -3.970000 11.384719 66.629000
H -5.243000 12.181719 66.819000
O 55.580000 6.063719 21.923000
H 55.873000 5.700719 21.087000
H 55.579000 5.316719 22.522000
O -5.059000 12.446719 17.155000
H -4.228000 12.404719 17.629000
H -4.822000 12.759719 16.282000
O 54.817000 10.484719 14.214000
H 55.320000 11.204719 13.835000
H 54.326000 10.885719 14.931000
O -7.830000 14.585719 20.136000
H -7.463000 14.980719 20.927000
H -7.300000 14.940719 19.422000
O 51.447000 14.285719 18.342000
H 50.938000 13.601719 18.778000
H 52.256000 14.343719 18.851000
O -10.124000 17.599719 65.845000
H -9.979000 17.265719 64.960000
H -9.441000 17.185719 66.373000
O -2.164000 13.074719 18.215000
H -1.611000 13.541719 18.842000
H -2.025000 12.148719 18.416000
O -1.644000 13.455719 23.673000
H -2.296000 14.065719 24.018000
H -0.934000 13.474719 24.315000
O 53.788000 12.071719 21.182000
H 53.635000 12.864719 20.668000
H 54.137000 12.388719 22.014000
O 31.309000 9.013719 23.477000
H 30.377000 9.171719 23.627000
H 31.451000 9.263719 22.564000
O 37.428000 9.825719 11.196000
H 37.564000 9.372719 10.364000
H 36.658000 10.374719 11.047000
O -3.978000 14.506719 20.841000
H -4.674000 14.508719 20.183000
H -3.722000 13.587719 20.916000
O 53.031000 11.925719 65.287000
H 52.451000 11.544719 64.627000
H 52.737000 11.543719 66.114000
O 53.866000 11.168719 16.711000
H 53.329000 11.913719 16.441000
H 54.627000 11.562719 17.137000
O 52.403000 15.730719 15.100000
H 53.094000 15.833719 14.446000
H 52.538000 14.852719 15.455000
O -11.182000 23.415719 19.554000
H -11.681000 24.230719 19.605000
H -11.469000 23.008719 18.737000
O -8.596000 17.968719 19.905000
H -7.724000 18.244719 19.623000
H -8.861000 18.628719 20.546000
O -6.583000 13.063719 23.328000
H -7.052000 12.934719 24.152000
H -5.890000 12.402719 23.340000
O 53.168000 7.661719 22.443000
H 54.010000 7.378719 22.087000
H 52.832000 8.283719 21.797000
O 38.142000 16.853719 67.527000
H 38.424000 16.718719 66.622000
H 37.194000 16.974719 67.468000
O 34.991000 10.697719 18.462000
H 34.916000 10.023719 17.786000
H 35.802000 10.484719 18.924000
O 49.269000 18.991719 67.009000
H 48.499000 18.759719 66.491000
H 49.993000 18.537719 66.578000
O 31.310000 18.835719 13.208000
H 31.741000 19.399719 12.566000
H 31.176000 18.006719 12.749000
O -3.551000 14.962719 10.236000
H -3.817000 15.806719 9.872000
H -3.429000 15.130719 11.170000
O 45.833000 10.307719 23.642000
H 45.980000 10.600719 24.541000
H 46.649000 9.872719 23.395000
O 34.509000 18.426719 20.364000
H 34.067000 18.732719 21.156000
H 34.009000 17.657719 20.092000
O -3.429000 10.980719 19.167000
H -3.686000 11.573719 19.872000
H -4.117000 10.315719 19.150000
O 38.462000 16.474719 19.565000
H 37.872000 17.214719 19.421000
H 37.999000 15.723719 19.195000
O 56.921000 7.752719 66.278000
H 57.400000 8.123719 67.020000
H 56.172000 8.336719 66.161000
O -7.169000 21.451719 18.935000
H -6.651000 22.189719 18.614000
H -7.821000 21.849719 19.513000
O -5.725000 15.446719 18.676000
H -4.935000 15.965719 18.831000
H -5.801000 15.403719 17.723000
O 46.011000 10.566719 15.304000
H 46.077000 9.700719 15.706000
H 46.617000 10.533719 14.564000
O 47.252000 8.408719 18.047000
H 47.428000 7.699719 18.666000
H 46.810000 7.981719 17.313000
O -2.552000 20.147719 14.462000
H -3.177000 19.423719 14.510000
H -1.769000 19.763719 14.067000
O 34.661000 4.854719 24.941000
H 35.217000 4.282719 24.413000
H 34.174000 5.373719 24.302000
O 56.190000 9.017719 19.153000
H 56.424000 8.091719 19.091000
H 55.360000 9.087719 18.681000
O -2.320000 23.048719 14.109000
H -2.258000 23.120719 13.157000
H -2.546000 22.132719 14.267000
O -3.452000 23.692719 21.873000
H -3.641000 24.363719 21.218000
H -3.934000 22.921719 21.574000
O 33.308000 15.887719 19.933000
H 33.768000 15.624719 20.730000
H 32.711000 15.161719 19.750000
O 33.200000 9.344719 20.093000
H 32.599000 8.923719 19.479000
H 33.787000 9.859719 19.540000
O 50.817000 15.914719 20.983000
H 51.695000 16.177719 20.707000
H 50.696000 15.045719 20.600000
O 53.573000 8.999719 18.306000
H 53.500000 9.767719 17.739000
H 53.195000 9.279719 19.139000
O -4.458000 21.467719 20.527000
H -3.627000 21.059719 20.282000
H -4.949000 21.522719 19.707000
O -1.956000 16.770719 16.294000
H -2.124000 16.592719 17.220000
H -1.255000 16.162719 16.057000
O -1.780000 9.020719 20.646000
H -2.701000 9.178719 20.437000
H -1.697000 8.066719 20.660000
O 44.496000 15.950719 16.837000
H 44.192000 16.715719 16.348000
H 45.376000 15.782719 16.499000
O -4.391000 24.903719 14.517000
H -3.893000 25.495719 13.953000
H -3.861000 24.107719 14.557000
O 55.146000 5.675719 9.117000
H 54.545000 5.263719 8.497000
H 54.645000 5.741719 9.930000
O -1.384000 25.152719 18.525000
H -0.812000 25.486719 17.833000
H -0.915000 24.397719 18.880000
O -3.865000 22.576719 66.189000
H -4.504000 23.281719 66.292000
H -4.331000 21.899719 65.698000
O -5.882000 23.673719 18.199000
H -5.165000 24.145719 18.623000
H -6.316000 24.331719 17.657000
O 32.071000 25.468719 16.720000
H 31.999000 25.132719 15.826000
H 32.842000 25.029719 17.079000
O -9.179000 19.857719 21.768000
H -8.364000 19.757719 22.259000
H -9.115000 20.727719 21.372000
O -6.570000 20.505719 22.649000
H -6.336000 20.769719 23.539000
H -6.052000 21.080719 22.085000
O 31.807000 24.008719 14.457000
H 30.983000 23.524719 14.510000
H 31.905000 24.215719 13.528000
O -3.133000 26.229719 10.048000
H -3.232000 26.346719 10.993000
H -3.981000 25.893719 9.757000
O -0.783000 4.915719 9.454000
H -1.197000 4.160719 9.035000
H -1.131000 5.672719 8.984000
O 44.213000 4.025719 9.372000
H 43.367000 3.837719 9.781000
H 44.362000 3.287719 8.781000
O 48.971000 5.899719 16.933000
H 49.840000 5.722719 17.292000
H 49.121000 6.035719 15.997000
O -2.003000 23.814719 11.272000
H -2.370000 24.432719 10.639000
H -1.145000 24.179719 11.492000
O -5.628000 20.566719 65.125000
H -6.334000 20.485719 65.767000
H -5.065000 19.810719 65.292000
O -10.965000 24.666719 22.832000
H -10.998000 25.030719 23.716000
H -10.121000 24.956719 22.485000
O 33.890000 4.051719 67.441000
H 34.110000 4.214719 66.524000
H 34.290000 4.779719 67.917000
O 31.480000 18.475719 66.192000
H 31.367000 17.527719 66.268000
H 30.772000 18.755719 65.612000
O 57.307000 3.756719 65.505000
H 58.092000 4.228719 65.782000
H 57.572000 2.836719 65.495000
O 56.174000 6.918719 15.660000
H 56.471000 6.492719 14.856000
H 55.220000 6.936719 15.583000
O 50.933000 9.001719 12.305000
H 51.400000 8.548719 13.007000
H 51.611000 9.213719 11.664000
O -5.552000 24.933719 9.278000
H -6.340000 25.194719 8.803000
H -5.105000 24.327719 8.688000
O -8.668000 22.764719 24.123000
H -8.614000 23.267719 23.311000
H -9.450000 22.221719 24.018000
O -3.284000 26.316719 24.433000
H -3.560000 26.363719 25.349000
H -3.307000 25.383719 24.223000
O -12.638000 22.729719 22.020000
H -12.133000 23.375719 22.515000
H -11.994000 22.306719 21.452000
O 56.023000 5.425719 67.167000
H 56.365000 6.160719 66.658000
H 56.270000 4.649719 66.663000
O 56.613000 4.768719 17.180000
H 56.776000 4.081719 16.534000
H 56.637000 5.581719 16.677000
O 48.689000 3.480719 66.546000
H 48.031000 3.915719 66.003000
H 49.398000 3.268719 65.939000
O -0.584000 5.716719 16.296000
H -1.351000 6.040719 16.769000
H -0.826000 4.832719 16.023000
O -1.872000 19.301719 24.371000
H -2.557000 19.072719 24.999000
H -2.248000 19.087719 23.517000
O -2.835000 9.014719 24.007000
H -3.342000 9.093719 23.200000
H -3.246000 8.289719 24.479000
O -6.542000 25.802719 16.286000
H -5.856000 25.434719 15.729000
H -6.539000 26.738719 16.084000
O -8.321000 24.084719 14.505000
H -8.421000 24.446719 15.385000
H -8.573000 23.165719 14.593000
O -2.288000 20.020719 19.752000
H -2.408000 19.440719 20.504000
H -1.432000 20.425719 19.896000
O -3.888000 24.752719 19.497000
H -4.201000 25.655719 19.446000
H -3.048000 24.763719 19.038000
O 34.431000 24.534719 17.581000
H 34.200000 23.674719 17.229000
H 34.743000 24.354719 18.467000
O 55.560000 3.801719 23.426000
H 56.288000 3.696719 24.039000
H 55.180000 2.925719 23.354000
O -9.041000 18.306719 15.083000
H -9.002000 17.349719 15.097000
H -9.788000 18.507719 14.518000
O -9.058000 22.200719 20.755000
H -8.483000 22.870719 21.125000
H -9.834000 22.681719 20.467000
O -11.867000 26.147719 19.120000
H -10.934000 25.933719 19.086000
H -11.992000 26.785719 18.418000
O 54.473000 4.362719 18.621000
H 55.205000 4.758719 18.148000
H 54.859000 3.613719 19.076000
O -10.143000 25.703719 11.042000
H -10.069000 25.366719 11.935000
H -11.029000 26.061719 10.993000
O 33.352000 4.216719 14.411000
H 34.283000 4.201719 14.189000
H 32.916000 4.470719 13.598000
O 31.168000 10.863719 16.567000
H 31.229000 10.041719 17.054000
H 30.862000 10.605719 15.698000
O 38.217000 21.088719 17.945000
H 38.734000 20.448719 18.435000
H 37.366000 20.667719 17.825000
O 49.916000 13.571719 32.702000
H 50.474000 13.366719 33.451000
H 49.650000 14.480719 32.842000
O 49.034000 7.255719 33.202000
H 48.399000 7.938719 32.991000
H 49.567000 7.630719 33.903000
O 38.417000 8.334719 34.583000
H 38.755000 8.226719 33.694000
H 37.715000 7.686719 34.653000
O 51.692000 6.796719 26.378000
H 52.435000 6.269719 26.083000
H 51.650000 7.521719 25.755000
O 40.290000 20.555719 33.005000
H 41.189000 20.308719 32.789000
H 40.219000 20.400719 33.947000
O 39.292000 18.566719 31.657000
H 40.127000 18.100719 31.616000
H 39.483000 19.355719 32.164000
O 49.096000 20.531719 32.556000
H 50.046000 20.506719 32.442000
H 48.956000 21.157719 33.266000
O 46.868000 4.845719 30.247000
H 47.525000 4.173719 30.065000
H 46.137000 4.630719 29.669000
O 33.083000 16.662719 29.765000
H 33.946000 16.582719 30.171000
H 32.795000 17.547719 29.987000
O 39.206000 14.886719 31.955000
H 39.103000 13.979719 32.244000
H 39.117000 15.405719 32.754000
O -2.042000 13.334719 28.788000
H -2.483000 13.146719 29.616000
H -2.482000 14.115719 28.453000
O -8.736000 25.460719 25.831000
H -8.719000 24.503719 25.814000
H -8.848000 25.682719 26.755000
O 43.207000 8.300719 33.192000
H 43.725000 9.002719 32.799000
H 43.847000 7.761719 33.657000
O 44.607000 9.879719 31.441000
H 44.015000 9.507719 30.788000
H 44.779000 10.768719 31.130000
O 40.137000 5.370719 33.062000
H 40.622000 5.322719 32.238000
H 40.502000 6.133719 33.510000
O 46.159000 11.802719 26.006000
H 46.742000 12.251719 26.618000
H 45.478000 12.445719 25.806000
O -5.721000 24.373719 26.223000
H -6.110000 24.285719 27.093000
H -5.512000 25.304719 26.146000
O 38.345000 11.757719 26.578000
H 39.141000 11.825719 26.050000
H 37.945000 10.932719 26.303000
O -11.769000 24.314719 29.503000
H -10.919000 23.916719 29.692000
H -12.149000 24.487719 30.364000
O 43.732000 13.178719 25.679000
H 43.480000 12.346719 26.080000
H 42.978000 13.750719 25.821000
O 37.078000 13.813719 30.359000
H 37.773000 14.275719 30.829000
H 36.654000 13.274719 31.026000
O 43.722000 12.121719 28.656000
H 43.499000 12.994719 28.979000
H 43.005000 11.564719 28.958000
O 46.955000 9.107719 32.691000
H 47.549000 9.858719 32.708000
H 46.208000 9.405719 32.172000
O 37.957000 22.057719 32.248000
H 38.841000 21.836719 32.541000
H 38.070000 22.344719 31.342000
O 47.306000 22.101719 26.571000
H 48.086000 21.998719 27.116000
H 47.536000 21.682719 25.741000
O -3.696000 17.957719 28.698000
H -4.492000 18.402719 28.988000
H -2.986000 18.548719 28.949000
O 43.697000 5.429719 31.366000
H 44.325000 4.957719 30.819000
H 44.129000 5.504719 32.217000
O 43.907000 17.206719 29.195000
H 43.595000 16.316719 29.362000
H 43.682000 17.371719 28.280000
O 34.055000 15.484719 33.869000
H 34.432000 14.811719 33.302000
H 34.566000 16.271719 33.681000
O 38.056000 16.897719 33.546000
H 37.154000 17.039719 33.260000
H 38.569000 17.538719 33.053000
O 41.795000 17.614719 31.740000
H 42.332000 17.165719 31.088000
H 42.349000 18.327719 32.057000
O 41.614000 14.903719 25.498000
H 41.070000 14.149719 25.729000
H 41.543000 15.490719 26.250000
O 46.136000 14.574719 30.511000
H 45.336000 15.034719 30.258000
H 46.842000 15.182719 30.291000
O 42.984000 21.885719 30.494000
H 43.625000 21.175719 30.532000
H 42.304000 21.563719 29.903000
O 36.893000 12.383719 34.646000
H 36.354000 13.048719 35.074000
H 37.247000 11.862719 35.367000
O 37.345000 9.872719 31.062000
H 37.216000 9.567719 30.164000
H 36.533000 9.640719 31.513000
O 45.517000 14.677719 27.408000
H 44.825000 14.085719 27.114000
H 46.324000 14.173719 27.303000
O 48.044000 16.914719 30.300000
H 47.740000 16.976719 29.395000
H 47.636000 17.659719 30.742000
O 47.480000 7.683719 30.066000
H 47.508000 6.741719 30.231000
H 47.076000 8.053719 30.851000
O 46.448000 17.214719 33.951000
H 45.652000 17.690719 34.186000
H 46.152000 16.320719 33.778000
O 39.334000 11.940719 29.221000
H 39.017000 11.892719 28.320000
H 38.639000 12.396719 29.696000
O 31.713000 21.933719 30.716000
H 31.638000 22.199719 29.800000
H 32.432000 22.462719 31.062000
O 32.119000 9.039719 34.750000
H 32.344000 9.739719 35.363000
H 32.900000 8.487719 34.719000
O 46.482000 17.800719 28.054000
H 45.689000 17.313719 28.281000
H 46.181000 18.698719 27.920000
O 44.939000 5.359719 33.917000
H 44.307000 5.223719 34.624000
H 45.142000 4.478719 33.604000
O 41.662000 7.655719 30.929000
H 42.147000 7.889719 31.720000
H 42.254000 7.076719 30.447000
O 43.014000 13.943719 32.681000
H 42.611000 14.534719 33.317000
H 42.496000 13.140719 32.737000
O 31.452000 4.458719 30.432000
H 30.911000 5.242719 30.537000
H 30.963000 3.911719 29.817000
O 45.799000 14.714719 33.181000
H 44.936000 14.301719 33.166000
H 46.119000 14.635719 32.282000
O 31.564000 8.441719 29.948000
H 31.049000 8.716719 29.189000
H 31.010000 7.801719 30.395000
O 36.224000 7.715719 29.149000
H 36.541000 7.175719 28.425000
H 35.384000 7.325719 29.389000
O 34.819000 10.847719 25.276000
H 34.366000 10.006719 25.214000
H 34.218000 11.408719 25.766000
O -11.738000 21.586719 27.645000
H -11.895000 20.703719 27.312000
H -10.870000 21.817719 27.316000
O 44.467000 19.662719 30.988000
H 44.504000 18.868719 30.455000
H 45.359000 19.771719 31.319000
O 37.745000 5.818719 32.054000
H 38.603000 5.962719 32.451000
H 37.775000 6.310719 31.233000
O 43.143000 14.767719 30.097000
H 42.876000 14.518719 30.982000
H 42.331000 14.760719 29.591000
O 41.513000 10.897719 29.737000
H 41.452000 10.973719 30.690000
H 40.679000 11.240719 29.416000
O 42.740000 18.201719 26.617000
H 42.445000 19.091719 26.813000
H 43.536000 18.321719 26.099000
O -4.592000 22.718719 34.426000
H -4.978000 23.543719 34.718000
H -3.674000 22.774719 34.692000
O 43.717000 23.333719 26.092000
H 43.243000 24.013719 25.614000
H 44.437000 23.798719 26.519000
O 39.277000 8.383719 32.027000
H 40.004000 8.293719 31.411000
H 38.679000 9.000719 31.605000
O 41.467000 11.839719 32.560000
H 41.663000 11.668719 33.481000
H 40.527000 12.017719 32.544000
O 35.493000 17.956719 27.527000
H 35.461000 18.684719 28.148000
H 35.596000 18.375719 26.672000
O 38.620000 18.895719 29.202000
H 38.805000 18.508719 30.058000
H 38.538000 18.145719 28.613000
O 45.574000 20.691719 28.364000
H 46.271000 20.665719 29.019000
H 45.990000 21.064719 27.586000
O 47.118000 18.909719 31.890000
H 47.103000 18.315719 32.641000
H 47.880000 19.467719 32.041000
O 33.948000 26.259719 33.348000
H 33.884000 25.669719 34.099000
H 34.831000 26.118719 33.007000
O 33.267000 11.021719 31.935000
H 33.141000 11.014719 30.986000
H 32.433000 10.713719 32.291000
O 42.360000 24.089719 28.854000
H 42.652000 23.762719 28.003000
H 42.598000 23.397719 29.471000
O 38.651000 12.295719 32.443000
H 38.315000 12.434719 33.328000
H 38.049000 11.660719 32.054000
O 35.044000 8.712719 32.450000
H 34.408000 8.021719 32.265000
H 34.510000 9.483719 32.644000
O -10.494000 20.003719 29.937000
H -10.694000 19.114719 29.645000
H -10.730000 20.559719 29.195000
O 35.202000 13.012719 32.324000
H 34.454000 12.421719 32.234000
H 35.712000 12.646719 33.046000
O 36.460000 19.948719 32.586000
H 37.059000 20.669719 32.393000
H 36.398000 19.936719 33.541000
O 40.873000 14.199719 28.578000
H 40.332000 13.422719 28.722000
H 40.276000 14.935719 28.708000
O 33.169000 12.383719 27.280000
H 33.019000 11.814719 28.035000
H 33.848000 12.992719 27.569000
O 40.461000 21.154719 29.451000
H 40.509000 21.214719 28.497000
H 40.025000 20.319719 29.618000
O 48.016000 16.884719 25.371000
H 47.146000 17.005719 25.752000
H 47.999000 17.401719 24.565000
O 31.837000 22.763719 27.999000
H 32.257000 22.114719 27.434000
H 32.340000 23.565719 27.859000
O 32.904000 20.922719 26.143000
H 32.883000 21.476719 25.363000
H 32.221000 20.269719 25.993000
O 38.098000 3.522719 27.648000
H 38.811000 4.062719 27.991000
H 37.850000 2.958719 28.381000
O 39.308000 7.404719 26.850000
H 38.380000 7.307719 26.636000
H 39.529000 6.602719 27.325000
O 42.289000 10.155719 25.553000
H 41.677000 9.633719 25.033000
H 42.299000 9.730719 26.410000
O 46.552000 8.614719 27.715000
H 46.423000 9.520719 27.996000
H 46.937000 8.179719 28.476000
O 35.985000 13.748719 27.785000
H 36.582000 13.110719 27.393000
H 36.299000 13.850719 28.683000
O 41.579000 8.527719 28.015000
H 40.765000 8.264719 27.585000
H 41.296000 8.995719 28.800000
O 34.120000 15.638719 26.514000
H 34.330000 16.443719 26.988000
H 34.899000 15.090719 26.615000
O 47.366000 7.287719 25.584000
H 48.075000 6.744719 25.928000
H 47.025000 7.751719 26.350000
O 45.530000 25.225719 27.134000
H 46.464000 25.170719 27.335000
H 45.117000 25.443719 27.970000
O 41.831000 3.407719 34.526000
H 41.287000 2.906719 35.134000
H 41.248000 4.087719 34.187000
O 34.468000 22.088719 34.234000
H 34.381000 22.294719 33.303000
H 34.522000 22.941719 34.664000
O 37.381000 20.681719 27.435000
H 38.171000 21.092719 27.084000
H 37.696000 19.889719 27.870000
O 34.248000 22.672719 31.496000
H 34.689000 23.247719 30.871000
H 34.625000 21.807719 31.335000
O 46.357000 22.479719 34.110000
H 46.048000 22.848719 33.283000
H 47.240000 22.835719 34.217000
O 41.919000 23.737719 32.337000
H 42.208000 22.913719 31.944000
H 42.009000 23.598719 33.280000
O 39.987000 25.601719 31.947000
H 40.827000 25.142719 31.950000
H 39.638000 25.458719 31.067000
O 33.212000 25.142719 28.274000
H 33.498000 25.760719 27.601000
H 33.840000 25.256719 28.987000
O 47.825000 21.191719 30.003000
H 48.292000 21.544719 29.245000
H 48.507000 21.044719 30.658000
O -2.371000 21.990719 28.375000
H -1.559000 22.488719 28.278000
H -2.827000 22.110719 27.542000
O 39.569000 21.621719 26.286000
H 39.150000 22.064719 25.548000
H 40.398000 21.298719 25.933000
O 38.101000 24.296719 33.683000
H 38.106000 23.438719 33.259000
H 38.827000 24.769719 33.277000
O 35.466000 19.951719 25.667000
H 34.710000 20.297719 26.141000
H 36.221000 20.214719 26.194000
O 46.248000 23.480719 31.470000
H 46.651000 22.725719 31.042000
H 46.709000 24.236719 31.108000
O 43.997000 26.177719 29.117000
H 43.643000 26.872719 29.672000
H 43.322000 25.499719 29.121000
O 45.734000 26.317719 34.086000
H 46.462000 26.804719 33.699000
H 45.224000 26.012719 33.335000
O -12.475000 25.124719 32.018000
H -11.728000 25.356719 32.569000
H -13.039000 25.897719 32.039000
O 42.978000 20.987719 27.680000
H 43.880000 20.722719 27.859000
H 43.060000 21.771719 27.137000
O 41.204000 7.354719 34.566000
H 40.554000 8.050719 34.471000
H 41.927000 7.622719 33.998000
O 36.563000 26.034719 32.175000
H 37.080000 25.391719 32.659000
H 36.957000 26.877719 32.400000
O -1.882000 23.637719 34.845000
H -1.201000 24.191719 34.463000
H -1.694000 23.637719 35.783000
O 38.283000 22.604719 29.700000
H 39.133000 22.203719 29.521000
H 37.914000 22.782719 28.835000
O 35.407000 24.882719 30.024000
H 35.555000 25.226719 30.905000
H 36.207000 25.097719 29.544000
O 40.178000 25.433719 28.927000
H 40.543000 26.314719 29.013000
H 40.942000 24.856719 28.925000
O -12.443000 26.371719 25.065000
H -13.339000 26.490719 24.751000
H -12.538000 25.877719 25.880000
O 44.233000 25.322719 32.128000
H 43.411000 24.835719 32.191000
H 44.884000 24.664719 31.886000
O 41.169000 4.328719 30.711000
H 42.075000 4.615719 30.824000
H 41.239000 3.408719 30.457000
O -2.023000 25.775719 31.381000
H -2.837000 26.085719 31.777000
H -2.106000 24.822719 31.374000
O 35.550000 19.611719 29.837000
H 35.882000 19.839719 30.706000
H 36.171000 20.014719 29.230000
O 42.860000 19.830719 33.177000
H 43.518000 19.886719 32.484000
H 43.297000 19.355719 33.885000
O 34.893000 5.765719 32.505000
H 34.840000 4.852719 32.788000
H 35.815000 5.997719 32.613000
O -14.846000 25.960719 30.402000
H -14.274000 26.471719 29.829000
H -15.697000 26.393719 30.339000
O 49.295000 16.315719 32.866000
H 48.895000 16.366719 31.998000
H 48.661000 16.733719 33.448000
O -1.929000 6.674719 31.000000
H -2.200000 6.832719 31.905000
H -2.703000 6.301719 30.580000
O 36.680000 6.195719 26.813000
H 37.035000 5.307719 26.853000
H 36.186000 6.219719 25.993000
O -1.399000 19.473719 28.280000
H -1.787000 20.321719 28.062000
H -0.924000 19.216719 27.489000
O 37.550000 24.111719 26.445000
H 36.787000 24.493719 26.012000
H 38.299000 24.553719 26.046000
O 40.040000 25.551719 26.284000
H 40.471000 25.514719 27.138000
H 40.752000 25.455719 25.652000
O 36.082000 26.623719 25.360000
H 36.079000 27.262719 24.647000
H 35.417000 26.942719 25.970000
O -13.140000 24.937719 27.313000
H -13.305000 24.097719 26.886000
H -12.795000 24.704719 28.175000
O -7.136000 13.037719 33.647000
H -7.128000 13.884719 34.094000
H -6.776000 13.221719 32.779000
O -2.095000 10.513719 34.682000
H -1.582000 9.930719 34.122000
H -1.575000 11.314719 34.735000
O -3.376000 12.711719 31.338000
H -3.813000 11.886719 31.548000
H -3.053000 13.033719 32.179000
O -9.960000 20.872719 33.731000
H -10.372000 21.611719 34.178000
H -9.901000 20.190719 34.400000
O -7.344000 20.091719 27.200000
H -8.137000 20.566719 26.951000
H -6.850000 20.712719 27.735000
O -5.281000 16.415719 30.619000
H -4.917000 17.187719 31.052000
H -5.934000 16.766719 30.012000
O -7.177000 17.786719 29.101000
H -7.306000 18.675719 28.770000
H -7.878000 17.664719 29.741000
O -8.909000 22.115719 26.840000
H -8.557000 22.389719 25.993000
H -8.397000 22.605719 27.483000
O 50.313000 17.492719 29.127000
H 49.976000 17.791719 28.282000
H 49.532000 17.358719 29.663000
O 31.503000 25.066719 25.580000
H 30.971000 24.291719 25.397000
H 31.229000 25.705719 24.922000
O 51.945000 11.240719 27.787000
H 52.063000 10.293719 27.858000
H 51.033000 11.387719 28.038000
O 31.549000 3.855719 33.201000
H 31.161000 3.037719 33.510000
H 31.185000 3.978719 32.324000
O 34.154000 7.845719 25.694000
H 34.582000 7.519719 24.903000
H 33.285000 7.443719 25.680000
O 52.394000 6.269719 31.437000
H 51.982000 6.081719 30.594000
H 51.738000 6.016719 32.087000
O -5.783000 14.005719 31.454000
H -4.908000 13.625719 31.372000
H -5.710000 14.865719 31.040000
O -8.744000 21.313719 31.415000
H -9.161000 21.136719 32.258000
H -9.226000 20.772719 30.790000
O 54.904000 9.411719 29.929000
H 54.647000 10.154719 30.474000
H 54.147000 9.256719 29.363000
O 31.868000 19.099719 30.245000
H 31.246000 19.180719 29.522000
H 32.426000 19.874719 30.170000
O 54.912000 7.370719 34.166000
H 55.187000 7.363719 33.249000
H 55.554000 7.928719 34.605000
O 51.155000 6.408719 28.945000
H 51.367000 6.505719 28.017000
H 50.892000 5.493719 29.038000
O -6.598000 17.596719 33.998000
H -7.183000 17.648719 33.242000
H -5.723000 17.504719 33.619000
O -3.637000 16.564719 34.527000
H -3.307000 15.671719 34.424000
H -3.398000 17.004719 33.712000
O 30.949000 9.950719 32.065000
H 30.004000 9.849719 31.948000
H 31.333000 9.504719 31.310000
O 35.319000 17.318719 32.607000
H 35.554000 18.232719 32.447000
H 35.496000 16.876719 31.777000
O 51.225000 12.907719 30.620000
H 50.669000 13.060719 31.384000
H 51.917000 12.328719 30.938000
O -1.574000 17.093719 32.411000
H -1.510000 16.695719 31.543000
H -1.276000 17.993719 32.286000
O 53.864000 5.334719 25.406000
H 54.319000 5.299719 24.564000
H 54.565000 5.336719 26.058000
O 52.385000 15.146719 29.778000
H 51.973000 14.346719 30.103000
H 51.655000 15.688719 29.480000
O 55.399000 7.000719 31.473000
H 55.261000 7.831719 31.018000
H 54.540000 6.578719 31.470000
O -1.727000 8.972719 27.852000
H -2.475000 8.900719 28.446000
H -1.866000 9.799719 27.390000
O -3.437000 15.279719 27.675000
H -3.364000 15.984719 28.318000
H -4.341000 14.975719 27.753000
O -3.351000 13.769719 33.830000
H -4.117000 13.234719 34.041000
H -2.629000 13.350719 34.298000
O -3.161000 9.484719 31.677000
H -3.505000 9.097719 30.872000
H -3.182000 8.770719 32.314000
O 42.426000 4.161719 27.402000
H 42.557000 3.244719 27.645000
H 42.653000 4.198719 26.473000
O 40.653000 12.424719 25.362000
H 40.346000 12.163719 24.493000
H 41.421000 11.875719 25.520000
O 31.320000 15.636719 34.362000
H 30.915000 16.353719 33.875000
H 32.213000 15.588719 34.021000
O 51.598000 15.883719 34.279000
H 51.676000 15.028719 34.703000
H 50.657000 16.003719 34.153000
O 49.355000 11.561719 28.865000
H 49.785000 12.078719 29.546000
H 49.402000 10.659719 29.182000
O -5.308000 24.824719 30.458000
H -5.866000 25.566719 30.223000
H -4.996000 25.030719 31.339000
O 50.430000 8.769719 34.852000
H 50.727000 9.010719 33.975000
H 50.017000 9.562719 35.192000
O 57.104000 5.973719 29.695000
H 56.521000 5.981719 30.454000
H 56.563000 5.636719 28.981000
O 49.862000 8.959719 29.388000
H 49.031000 8.553719 29.633000
H 50.418000 8.226719 29.124000
O -1.061000 15.795719 30.022000
H -0.119000 15.922719 30.137000
H -1.153000 14.866719 29.810000
O 35.925000 10.099719 28.070000
H 35.895000 10.104719 27.113000
H 35.917000 9.172719 28.306000
O 48.221000 11.522719 32.263000
H 47.721000 11.815719 31.501000
H 48.862000 12.217719 32.410000
O 33.464000 10.473719 29.204000
H 33.269000 9.621719 29.593000
H 34.365000 10.393719 28.890000
O -7.817000 16.730719 26.797000
H -7.664000 17.192719 27.621000
H -7.812000 15.803719 27.036000
O 50.935000 9.798719 32.212000
H 50.193000 10.396719 32.120000
H 50.731000 9.070719 31.625000
O 35.972000 16.223719 30.217000
H 36.290000 15.324719 30.308000
H 36.595000 16.639719 29.622000
O -2.206000 11.446719 26.658000
H -1.679000 11.776719 25.930000
H -1.942000 11.981719 27.407000
O -3.901000 18.646719 26.099000
H -3.753000 18.448719 27.024000
H -4.569000 18.019719 25.823000
O -6.617000 22.897719 32.544000
H -7.130000 22.206719 32.125000
H -6.006000 22.431719 33.114000
O 46.050000 11.812719 30.158000
H 46.111000 12.751719 30.336000
H 45.285000 11.726719 29.589000
O 31.394000 13.702719 25.805000
H 31.249000 14.558719 26.209000
H 31.919000 13.220719 26.444000
O -1.845000 5.255719 26.285000
H -1.224000 5.980719 26.222000
H -1.378000 4.580719 26.778000
O -4.175000 8.739719 29.203000
H -5.044000 9.075719 29.426000
H -4.206000 7.814719 29.448000
O -5.703000 13.618719 28.202000
H -6.592000 13.814719 27.908000
H -5.783000 13.507719 29.149000
O -8.383000 16.763719 31.917000
H -8.842000 16.370719 32.659000
H -8.422000 16.098719 31.230000
O 50.107000 4.843719 32.581000
H 50.283000 4.540719 33.472000
H 49.542000 5.607719 32.694000
O 31.214000 16.034719 26.981000
H 30.687000 16.002719 27.779000
H 32.117000 15.942719 27.286000
O 31.033000 7.595719 25.790000
H 31.048000 8.156719 25.015000
H 30.577000 8.113719 26.453000
O 53.141000 11.227719 31.329000
H 53.441000 11.729719 32.087000
H 52.448000 10.663719 31.673000
O 54.613000 9.403719 26.088000
H 54.069000 9.564719 25.317000
H 55.198000 10.159719 26.132000
O -8.086000 14.075719 27.564000
H -8.345000 13.155719 27.628000
H -8.489000 14.492719 28.325000
O 48.005000 13.342719 27.136000
H 48.451000 13.369719 26.289000
H 48.638000 12.932719 27.727000
O 34.321000 5.520719 29.864000
H 33.496000 5.035719 29.884000
H 34.605000 5.547719 30.778000
O -4.883000 11.430719 26.347000
H -3.970000 11.384719 26.629000
H -5.243000 12.181719 26.819000
O -10.124000 17.599719 25.845000
H -9.979000 17.265719 24.960000
H -9.441000 17.185719 26.373000
O 53.031000 11.925719 25.287000
H 52.451000 11.544719 24.627000
H 52.737000 11.543719 26.114000
O 43.897000 6.934719 28.408000
H 44.471000 7.604719 28.037000
H 43.012000 7.263719 28.252000
O 38.142000 16.853719 27.527000
H 38.424000 16.718719 26.622000
H 37.194000 16.974719 27.468000
O 49.269000 18.991719 27.009000
H 48.499000 18.759719 26.491000
H 49.993000 18.537719 26.578000
O 56.921000 7.752719 26.278000
H 57.400000 8.123719 27.020000
H 56.172000 8.336719 26.161000
O -10.161000 25.818719 33.203000
H -9.276000 25.738719 32.846000
H -10.152000 26.646719 33.683000
O -0.991000 19.751719 32.575000
H -0.404000 19.568719 31.842000
H -1.642000 20.355719 32.217000
O -7.161000 26.322719 34.823000
H -6.296000 26.708719 34.683000
H -7.136000 25.999719 35.724000
O -3.865000 22.576719 26.189000
H -4.504000 23.281719 26.292000
H -4.331000 21.899719 25.698000
O -7.757000 25.368719 32.103000
H -7.497000 25.792719 32.922000
H -7.108000 24.677719 31.975000
O -2.920000 6.899719 33.551000
H -2.243000 6.766719 34.215000
H -3.675000 6.408719 33.877000
O -4.450000 26.152719 32.673000
H -5.187000 26.673719 32.355000
H -4.144000 26.618719 33.451000
O -4.489000 20.301719 29.903000
H -3.944000 21.030719 29.608000
H -4.324000 20.242719 30.844000
O 31.785000 19.809719 34.990000
H 31.282000 19.841719 34.176000
H 32.487000 20.447719 34.863000
O -9.042000 23.664719 29.937000
H -8.798000 24.275719 30.633000
H -8.973000 22.799719 30.341000
O -6.255000 22.063719 28.928000
H -6.300000 22.661719 29.674000
H -5.804000 21.290719 29.267000
O -9.150000 25.856719 28.431000
H -9.574000 25.109719 28.853000
H -9.842000 26.513719 28.354000
O -12.529000 23.010719 33.989000
H -12.038000 23.073719 34.809000
H -12.370000 23.846719 33.550000
O -5.628000 20.566719 25.125000
H -6.334000 20.485719 25.767000
H -5.065000 19.810719 25.292000
O 33.890000 4.051719 27.441000
H 34.110000 4.214719 26.524000
H 34.290000 4.779719 27.917000
O 31.480000 18.475719 26.192000
H 31.367000 17.527719 26.268000
H 30.772000 18.755719 25.612000
O 57.307000 3.756719 25.505000
H 58.092000 4.228719 25.782000
H 57.572000 2.836719 25.495000
O -4.129000 18.215719 32.328000
H -3.243000 17.880719 32.187000
H -4.001000 19.117719 32.620000
O 53.115000 8.705719 28.103000
H 53.660000 9.021719 27.382000
H 52.707000 7.908719 27.765000
O -3.000000 23.343719 30.527000
H -2.728000 22.979719 29.684000
H -3.813000 23.811719 30.335000
O -3.561000 20.931719 32.318000
H -3.906000 21.387719 33.085000
H -3.043000 21.592719 31.858000
O 53.775000 3.962719 32.297000
H 53.462000 4.054719 33.197000
H 53.508000 4.774719 31.866000
O 56.023000 5.425719 27.167000
H 56.365000 6.160719 26.658000
H 56.270000 4.649719 26.663000
O 45.369000 4.247719 28.019000
H 44.723000 4.952719 28.065000
H 45.734000 4.314719 27.136000
O 48.689000 3.480719 26.546000
H 48.031000 3.915719 26.003000
H 49.398000 3.268719 25.939000
O 50.260000 3.986719 28.824000
H 49.905000 3.763719 27.963000
H 49.553000 3.781719 29.436000
O 39.995000 5.139719 28.364000
H 40.663000 4.922719 27.713000
H 40.420000 4.976719 29.207000
O -25.942000 45.650281 47.139000
H -26.640000 45.828281 47.769000
H -25.700000 46.511281 46.799000
O -12.334000 36.832281 42.702000
H -11.776000 36.627281 43.451000
H -12.600000 37.741281 42.842000
O -13.216000 30.516281 43.202000
H -13.851000 31.199281 42.991000
H -12.683000 30.891281 43.903000
O 37.667000 31.595281 44.583000
H 38.005000 31.487281 43.694000
H 36.965000 30.947281 44.653000
O -10.558000 30.057281 36.378000
H -9.815000 29.530281 36.083000
H -10.600000 30.782281 35.755000
O -19.422000 39.678281 46.607000
H -18.734000 39.025281 46.733000
H -19.889000 39.386281 45.824000
O 37.738000 35.108281 56.717000
H 38.469000 35.215281 57.326000
H 37.433000 35.999281 56.550000
O -21.960000 43.816281 43.005000
H -21.061000 43.569281 42.789000
H -22.031000 43.661281 43.947000
O 35.099000 43.607281 54.750000
H 35.483000 43.541281 55.624000
H 34.415000 42.938281 54.737000
O -22.958000 41.827281 41.657000
H -22.123000 41.361281 41.616000
H -22.767000 42.616281 42.164000
O -13.154000 43.792281 42.556000
H -12.204000 43.767281 42.442000
H -13.294000 44.418281 43.266000
O 33.715000 31.468281 52.413000
H 32.780000 31.555281 52.228000
H 34.121000 31.359281 51.553000
O -15.382000 28.106281 40.247000
H -14.725000 27.434281 40.065000
H -16.113000 27.891281 39.669000
O -17.967000 43.706281 53.627000
H -17.932000 42.962281 54.229000
H -18.856000 43.686281 53.272000
O 32.333000 39.923281 39.765000
H 33.196000 39.843281 40.171000
H 32.045000 40.808281 39.987000
O 38.456000 38.147281 41.955000
H 38.353000 37.240281 42.244000
H 38.367000 38.666281 42.754000
O -24.813000 51.013281 50.256000
H -24.257000 51.679281 50.659000
H -25.674000 51.425281 50.192000
O -21.069000 41.740281 64.463000
H -21.807000 41.206281 64.756000
H -20.392000 41.598281 65.125000
O 10.259000 3.060719 50.109000
H 9.884000 3.582719 50.818000
H 10.420000 2.202719 50.502000
O -2.792000 36.595281 38.788000
H -3.233000 36.407281 39.616000
H -3.232000 37.376281 38.453000
O -9.486000 48.721281 35.831000
H -9.469000 47.764281 35.814000
H -9.598000 48.943281 36.755000
O 42.457000 31.561281 43.192000
H 42.975000 32.263281 42.799000
H 43.097000 31.022281 43.657000
O -17.643000 33.140281 41.441000
H -18.235000 32.768281 40.788000
H -17.471000 34.029281 41.130000
O 33.952000 34.334281 51.311000
H 33.815000 33.411281 51.523000
H 34.204000 34.737281 52.143000
O 34.784000 43.222281 45.209000
H 35.242000 43.625281 45.946000
H 34.298000 43.941281 44.805000
O -15.598000 36.818281 52.434000
H -15.230000 37.658281 52.161000
H -16.469000 37.035281 52.767000
O 39.387000 28.631281 43.062000
H 39.872000 28.583281 42.238000
H 39.752000 29.394281 43.510000
O -16.091000 35.063281 36.006000
H -15.508000 35.512281 36.618000
H -16.772000 35.706281 35.806000
O -20.312000 41.399281 50.685000
H -20.476000 41.653281 49.776000
H -21.174000 41.166281 51.028000
O -4.933000 32.776281 56.177000
H -5.332000 33.351281 56.830000
H -5.549000 32.049281 56.090000
O -15.491000 36.705281 45.445000
H -15.641000 36.871281 44.514000
H -15.627000 35.763281 45.546000
O -6.471000 47.634281 36.223000
H -6.860000 47.546281 37.093000
H -6.262000 48.565281 36.146000
O 37.595000 35.018281 36.578000
H 38.391000 35.086281 36.050000
H 37.195000 34.193281 36.303000
O -17.175000 31.850281 48.246000
H -18.100000 31.802281 48.006000
H -17.000000 31.022281 48.694000
O -12.519000 47.575281 39.503000
H -11.669000 47.177281 39.692000
H -12.899000 47.748281 40.364000
O 36.478000 34.575281 47.243000
H 35.614000 34.201281 47.419000
H 37.057000 33.816281 47.170000
O -19.284000 34.600281 48.424000
H -18.974000 34.565281 47.519000
H -19.203000 35.521281 48.670000
O -23.423000 41.706281 53.002000
H -23.742000 40.938281 53.477000
H -23.675000 42.449281 53.550000
O 40.334000 32.208281 48.759000
H 40.665000 32.026281 49.639000
H 40.700000 33.064281 48.537000
O -18.518000 36.439281 35.679000
H -18.770000 35.607281 36.080000
H -19.272000 37.011281 35.821000
O 31.567000 38.037281 52.947000
H 31.455000 38.684281 52.251000
H 31.750000 38.557281 53.730000
O 36.328000 37.074281 40.359000
H 37.023000 37.536281 40.829000
H 35.904000 36.535281 41.026000
O -13.512000 33.790281 50.503000
H -12.793000 33.361281 50.040000
H -14.071000 34.139281 49.808000
O -18.528000 35.382281 38.656000
H -18.751000 36.255281 38.979000
H -19.245000 34.825281 38.958000
O 2.916000 0.230719 42.166000
H 2.639000 1.140719 42.270000
H 2.169000 -0.201281 41.753000
O -18.895000 44.581281 64.247000
H -18.601000 45.202281 64.913000
H -19.817000 44.796281 64.108000
O 30.568000 49.272281 43.549000
H 30.281000 49.544281 42.677000
H 31.502000 49.480281 43.571000
O -15.295000 32.368281 42.691000
H -14.701000 33.119281 42.708000
H -16.042000 32.666281 42.172000
O -16.765000 43.005281 47.328000
H -16.371000 42.625281 48.113000
H -17.157000 43.825281 47.629000
O 41.899000 30.947281 46.937000
H 41.322000 30.675281 46.223000
H 41.309000 31.111281 47.673000
O 36.180000 37.610281 51.885000
H 35.761000 36.896281 52.368000
H 35.497000 38.276281 51.802000
O -24.293000 45.318281 42.248000
H -23.409000 45.097281 42.541000
H -24.180000 45.605281 41.342000
O 31.010000 31.721281 52.422000
H 30.814000 32.036281 51.540000
H 30.631000 30.842281 52.453000
O -14.944000 45.362281 36.571000
H -14.164000 45.259281 37.116000
H -14.714000 44.943281 35.741000
O -4.446000 41.218281 38.698000
H -5.242000 41.663281 38.988000
H -3.736000 41.809281 38.949000
O 42.947000 28.690281 41.366000
H 43.575000 28.218281 40.819000
H 43.379000 28.765281 42.217000
O -18.343000 40.467281 39.195000
H -18.655000 39.577281 39.362000
H -18.568000 40.632281 38.280000
O 33.305000 38.745281 43.869000
H 33.682000 38.072281 43.302000
H 33.816000 39.532281 43.681000
O -14.769000 30.255281 53.369000
H -13.876000 30.178281 53.707000
H -14.660000 30.362281 52.425000
O -0.175000 3.341719 37.652000
H 0.717000 3.684719 37.604000
H -0.274000 2.815719 36.859000
O 39.095000 29.959281 51.933000
H 38.797000 29.662281 51.073000
H 39.826000 30.547281 51.743000
O 37.306000 40.158281 43.546000
H 36.404000 40.300281 43.260000
H 37.819000 40.799281 43.053000
O 36.529000 27.793281 47.211000
H 36.452000 28.431281 47.921000
H 37.223000 27.198281 47.497000
O -20.455000 40.875281 41.740000
H -19.918000 40.426281 41.088000
H -19.901000 41.588281 42.057000
O 36.288000 29.370281 45.062000
H 36.371000 28.828281 45.847000
H 36.391000 28.757281 44.334000
O 31.728000 51.318281 41.438000
H 32.340000 50.696281 41.831000
H 31.332000 50.837281 40.711000
O -20.636000 38.164281 35.498000
H -21.180000 37.410281 35.729000
H -20.707000 38.751281 36.250000
O 3.953000 0.284719 38.336000
H 4.347000 0.569719 37.512000
H 4.696000 0.025719 38.881000
O -18.933000 35.829281 52.147000
H -19.686000 36.153281 51.652000
H -18.614000 36.594281 52.626000
O -16.114000 37.835281 40.511000
H -16.914000 38.295281 40.258000
H -15.408000 38.443281 40.291000
O 31.688000 36.187281 46.986000
H 31.319000 37.035281 47.232000
H 32.622000 36.357281 46.866000
O -19.266000 45.146281 40.494000
H -18.625000 44.436281 40.532000
H -19.946000 44.824281 39.903000
O 41.679000 29.321281 63.526000
H 41.960000 28.554281 64.025000
H 42.319000 29.997281 63.745000
O 36.143000 35.644281 44.646000
H 35.604000 36.309281 45.074000
H 36.497000 35.123281 45.367000
O 4.390000 2.432719 46.347000
H 4.490000 2.725719 45.441000
H 4.872000 3.079719 46.863000
O 36.595000 33.133281 41.062000
H 36.466000 32.828281 40.164000
H 35.783000 32.901281 41.513000
O -24.605000 51.994281 39.664000
H -24.421000 51.090281 39.409000
H -24.729000 51.955281 40.613000
O -16.103000 34.124281 45.881000
H -15.644000 33.294281 46.011000
H -17.024000 33.915281 46.037000
O -14.806000 31.911281 46.756000
H -14.954000 31.277281 46.055000
H -15.611000 31.890281 47.273000
O -16.733000 37.938281 37.408000
H -17.425000 37.346281 37.114000
H -15.926000 37.434281 37.303000
O 35.799000 35.714281 60.969000
H 35.063000 35.431281 61.511000
H 36.498000 35.904281 61.594000
O -14.206000 40.175281 40.300000
H -14.510000 40.237281 39.395000
H -14.614000 40.920281 40.742000
O -14.770000 30.944281 40.066000
H -14.742000 30.002281 40.231000
H -15.174000 31.314281 40.851000
O 2.302000 2.968719 42.297000
H 1.509000 3.422719 42.581000
H 2.242000 2.955719 41.341000
O -6.792000 41.364281 52.911000
H -7.018000 41.844281 53.707000
H -5.866000 41.145281 53.017000
O -20.833000 41.367281 48.129000
H -21.506000 40.791281 48.493000
H -20.293000 40.792281 47.587000
O -17.480000 46.689281 51.935000
H -17.711000 46.813281 52.856000
H -16.624000 47.108281 51.844000
O -15.802000 40.475281 43.951000
H -16.598000 40.951281 44.186000
H -16.098000 39.581281 43.778000
O -11.458000 38.910281 48.134000
H -12.124000 38.421281 47.650000
H -11.261000 38.360281 48.892000
O 9.393000 1.656719 46.350000
H 10.150000 1.464719 46.903000
H 9.145000 0.809719 45.980000
O -18.216000 40.500281 53.207000
H -19.142000 40.529281 52.969000
H -17.771000 40.210281 52.410000
O 38.584000 35.201281 39.221000
H 38.267000 35.153281 38.320000
H 37.889000 35.657281 39.696000
O 38.847000 36.387281 47.313000
H 39.060000 36.798281 48.151000
H 38.099000 35.821281 47.508000
O 42.893000 28.465281 46.086000
H 42.067000 27.982281 46.088000
H 42.794000 29.114281 46.782000
O 33.498000 37.890281 55.027000
H 33.662000 38.540281 54.344000
H 33.831000 38.294281 55.828000
O 30.963000 45.194281 40.716000
H 30.888000 45.460281 39.800000
H 31.682000 45.723281 41.062000
O 31.369000 32.300281 44.750000
H 31.594000 33.000281 45.363000
H 32.150000 31.748281 44.719000
O -15.768000 41.061281 38.054000
H -16.561000 40.574281 38.281000
H -16.069000 41.959281 37.920000
O -18.057000 36.901281 49.451000
H -18.050000 37.743281 49.906000
H -17.369000 36.391281 49.878000
O 44.189000 28.620281 43.917000
H 43.557000 28.484281 44.624000
H 44.392000 27.739281 43.604000
O 33.615000 46.055281 48.928000
H 32.945000 46.270281 48.278000
H 33.495000 45.120281 49.096000
O 34.351000 32.848281 47.296000
H 34.163000 32.326281 48.076000
H 34.209000 32.248281 46.564000
O -17.912000 37.802281 53.581000
H -18.414000 37.469281 54.325000
H -18.067000 38.747281 53.590000
O -15.194000 27.522281 53.802000
H -16.069000 27.237281 53.537000
H -15.095000 28.388281 53.408000
O 2.219000 3.035719 49.919000
H 2.048000 2.620719 49.073000
H 1.514000 2.723719 50.486000
O 32.581000 40.903281 48.784000
H 32.938000 40.541281 47.973000
H 31.670000 40.608281 48.799000
O -18.751000 33.609281 46.148000
H -19.489000 34.127281 45.827000
H -19.153000 32.822281 46.515000
O 40.912000 30.916281 40.929000
H 41.397000 31.150281 41.720000
H 41.504000 30.337281 40.447000
O -1.892000 29.933281 45.459000
H -1.357000 30.678281 45.183000
H -1.280000 29.198281 45.496000
O 31.328000 35.475281 51.965000
H 32.177000 35.262281 51.579000
H 31.419000 36.380281 52.262000
O -19.236000 37.204281 42.681000
H -19.639000 37.795281 43.317000
H -19.754000 36.401281 42.737000
O -11.998000 41.185281 52.922000
H -11.424000 41.490281 52.219000
H -11.839000 40.243281 52.971000
O 30.702000 27.719281 40.432000
H 30.161000 28.503281 40.537000
H 30.213000 27.172281 39.817000
O 13.817000 1.619719 38.691000
H 12.940000 1.396719 38.378000
H 13.862000 2.572719 38.619000
O -20.449000 35.617281 45.749000
H -19.778000 36.198281 46.107000
H -21.260000 35.898281 46.173000
O -23.931000 44.353281 53.947000
H -23.693000 44.689281 53.083000
H -24.888000 44.331281 53.942000
O -10.856000 42.483281 50.481000
H -11.114000 43.242281 51.005000
H -9.903000 42.450281 50.559000
O -21.038000 40.420281 53.632000
H -21.820000 40.967281 53.557000
H -21.362000 39.583281 53.965000
O 13.582000 2.040719 64.211000
H 13.470000 2.236719 63.281000
H 14.460000 2.361719 64.420000
O -14.193000 36.631281 62.735000
H -13.749000 37.107281 63.437000
H -15.099000 36.553281 63.033000
O -16.451000 37.975281 43.181000
H -17.314000 37.562281 43.166000
H -16.131000 37.896281 42.282000
O 30.814000 31.702281 39.948000
H 30.299000 31.977281 39.189000
H 30.260000 31.062281 40.395000
O 30.924000 32.247281 49.692000
H 31.313000 32.695281 48.941000
H 30.540000 31.451281 49.325000
O 35.196000 29.689281 58.084000
H 34.827000 30.532281 57.821000
H 35.553000 29.321281 57.275000
O -15.788000 34.434281 49.015000
H -16.437000 33.743281 49.154000
H -15.763000 34.552281 48.066000
O 40.843000 31.851281 51.508000
H 40.808000 32.758281 51.811000
H 41.778000 31.657281 51.437000
O -2.939000 46.783281 64.436000
H -3.106000 46.146281 63.741000
H -3.492000 46.495281 65.163000
O -25.407000 48.048281 46.071000
H -25.083000 47.997281 45.172000
H -24.834000 48.686281 46.497000
O -20.399000 38.935281 44.292000
H -21.288000 38.652281 44.508000
H -20.520000 39.659281 43.678000
O 38.779000 37.935281 45.163000
H 38.198000 38.623281 45.487000
H 38.659000 37.210281 45.776000
O 34.878000 35.509281 53.603000
H 35.141000 34.889281 54.283000
H 34.482000 36.237281 54.081000
O -17.902000 39.354281 59.498000
H -18.706000 38.839281 59.567000
H -17.631000 39.255281 58.586000
O 35.474000 30.976281 39.149000
H 35.791000 30.436281 38.425000
H 34.634000 30.586281 39.389000
O -11.803000 32.533281 48.952000
H -12.123000 31.785281 49.457000
H -10.849000 32.459281 48.994000
O -1.420000 41.526281 58.172000
H -1.845000 41.075281 57.442000
H -2.130000 41.708281 58.788000
O 6.997000 2.656719 42.283000
H 7.744000 2.086719 42.462000
H 7.321000 3.539719 42.461000
O -25.423000 48.926281 52.162000
H -25.268000 49.774281 51.747000
H -25.154000 49.051281 53.072000
O 34.069000 34.108281 35.276000
H 33.616000 33.267281 35.214000
H 33.468000 34.669281 35.766000
O 31.603000 33.435281 47.366000
H 32.534000 33.213281 47.378000
H 31.585000 34.392281 47.390000
O -13.012000 36.985281 46.811000
H -13.120000 36.114281 47.195000
H -13.837000 37.150281 46.355000
O -12.488000 44.847281 37.645000
H -12.645000 43.964281 37.312000
H -11.620000 45.078281 37.316000
O -11.038000 41.900281 45.683000
H -10.853000 41.149281 45.119000
H -11.993000 41.923281 45.747000
O -17.783000 42.923281 40.988000
H -17.746000 42.129281 40.455000
H -16.891000 43.032281 41.319000
O -2.481000 33.121281 47.351000
H -1.542000 33.172281 47.526000
H -2.558000 33.260281 46.407000
O -1.572000 39.906281 51.771000
H -2.369000 39.420281 51.984000
H -1.654000 40.102281 50.837000
O 36.995000 29.079281 42.054000
H 37.853000 29.223281 42.451000
H 37.025000 29.571281 41.233000
O 16.560000 0.966719 63.655000
H 16.247000 0.805719 62.765000
H 17.502000 1.103719 63.558000
O -19.107000 38.028281 40.097000
H -19.374000 37.779281 40.982000
H -19.919000 38.021281 39.591000
O 40.763000 34.158281 39.737000
H 40.702000 34.234281 40.690000
H 39.929000 34.501281 39.416000
O 38.359000 39.940281 48.996000
H 37.776000 39.857281 48.241000
H 38.406000 39.057281 49.362000
O -19.510000 41.462281 36.617000
H -19.805000 42.352281 36.813000
H -18.714000 41.582281 36.099000
O -5.342000 45.979281 44.426000
H -5.728000 46.804281 44.718000
H -4.424000 46.035281 44.692000
O 14.235000 1.182719 45.012000
H 14.910000 1.392719 44.367000
H 14.312000 0.237719 45.141000
O -18.533000 46.594281 36.092000
H -19.007000 47.274281 35.614000
H -17.813000 47.059281 36.519000
O -17.984000 41.757281 45.134000
H -18.568000 41.101281 45.515000
H -17.619000 42.220281 45.888000
O 38.527000 31.644281 42.027000
H 39.254000 31.554281 41.411000
H 37.929000 32.261281 41.605000
O -17.386000 42.178281 65.120000
H -17.662000 43.061281 64.877000
H -17.403000 41.686281 64.299000
O 36.722000 40.241281 46.362000
H 35.817000 40.554281 46.342000
H 37.075000 40.474281 45.503000
O -8.332000 42.572281 46.253000
H -7.953000 41.966281 45.616000
H -9.277000 42.438281 46.178000
O 40.717000 35.100281 42.560000
H 40.913000 34.929281 43.481000
H 39.777000 35.278281 42.544000
O 37.971000 32.365281 47.198000
H 38.088000 31.939281 46.349000
H 38.861000 32.496281 47.525000
O 34.743000 41.217281 37.527000
H 34.711000 41.945281 38.148000
H 34.846000 41.636281 36.672000
O 12.640000 2.351719 43.133000
H 11.903000 2.827719 43.517000
H 13.045000 1.898719 43.873000
O -23.630000 42.156281 39.202000
H -23.445000 41.769281 40.058000
H -23.712000 41.406281 38.613000
O 33.116000 43.406281 49.164000
H 34.036000 43.153281 49.089000
H 32.630000 42.620281 48.913000
O 36.572000 30.304281 48.408000
H 37.219000 29.990281 49.040000
H 37.041000 30.956281 47.888000
O -17.852000 37.076281 46.793000
H -17.828000 36.948281 47.741000
H -16.949000 36.934281 46.509000
O -16.676000 43.952281 38.364000
H -15.979000 43.926281 39.019000
H -16.260000 44.325281 37.586000
O -21.337000 37.848281 54.050000
H -20.485000 37.570281 54.389000
H -21.972000 37.466281 54.657000
O -15.132000 42.170281 41.890000
H -15.147000 41.576281 42.641000
H -14.370000 42.728281 42.041000
O 35.202000 29.753281 54.949000
H 35.637000 30.262281 54.265000
H 34.433000 30.272281 55.183000
O -15.975000 42.834281 51.914000
H -16.846000 42.751281 52.303000
H -15.407000 42.317281 52.486000
O -28.302000 49.520281 43.348000
H -28.366000 48.930281 44.099000
H -27.419000 49.379281 43.007000
O -13.075000 33.850281 46.802000
H -12.406000 33.421281 47.335000
H -13.753000 33.184281 46.685000
O 42.233000 27.026281 64.692000
H 43.133000 26.702281 64.709000
H 41.694000 26.236281 64.643000
O 32.517000 34.282281 41.935000
H 32.391000 34.275281 40.986000
H 31.683000 33.974281 42.291000
O -16.689000 29.623281 49.506000
H -17.144000 28.789281 49.386000
H -17.117000 30.024281 50.262000
O -12.591000 41.311281 48.653000
H -11.932000 41.750281 49.192000
H -12.270000 40.414281 48.565000
O -16.781000 40.026281 63.085000
H -17.327000 40.270281 62.338000
H -16.002000 40.576281 63.002000
O -19.890000 47.350281 38.854000
H -19.598000 47.023281 38.003000
H -19.652000 46.658281 39.471000
O -20.056000 43.773281 52.119000
H -19.887000 42.902281 51.759000
H -19.711000 44.376281 51.461000
O 37.901000 35.556281 42.443000
H 37.565000 35.695281 43.328000
H 37.299000 34.921281 42.054000
O 34.294000 31.973281 42.450000
H 33.658000 31.282281 42.265000
H 33.760000 32.744281 42.644000
O -11.244000 43.264281 39.937000
H -11.444000 42.375281 39.645000
H -11.480000 43.820281 39.195000
O 38.138000 37.316281 49.816000
H 37.435000 37.148281 50.443000
H 38.942000 37.219281 50.326000
O 33.492000 40.772281 45.856000
H 32.696000 40.583281 45.360000
H 33.850000 41.559281 45.446000
O -23.715000 42.415281 50.456000
H -23.630000 42.078281 51.348000
H -23.669000 41.637281 49.900000
O 34.452000 36.273281 42.324000
H 33.704000 35.682281 42.234000
H 34.962000 35.907281 43.046000
O -8.320000 42.418281 50.722000
H -7.732000 42.000281 51.352000
H -7.803000 43.131281 50.347000
O 40.140000 36.500281 51.429000
H 40.119000 37.106281 52.170000
H 39.803000 35.676281 51.783000
O 35.710000 43.209281 42.586000
H 36.309000 43.930281 42.393000
H 35.648000 43.197281 43.541000
O -19.153000 51.406281 47.485000
H -19.199000 52.321281 47.762000
H -19.775000 50.952281 48.053000
O 6.739000 1.972719 50.955000
H 6.957000 1.314719 51.615000
H 5.963000 2.412719 51.301000
O -21.377000 37.460281 38.578000
H -21.918000 36.683281 38.722000
H -21.974000 38.196281 38.708000
O 35.918000 43.435281 48.613000
H 36.565000 43.449281 49.319000
H 35.992000 44.296281 48.203000
O 14.157000 2.660719 61.648000
H 14.258000 1.709719 61.667000
H 15.041000 2.993719 61.495000
O 40.061000 31.494281 64.232000
H 40.666000 30.769281 64.074000
H 39.458000 31.163281 64.898000
O 19.141000 1.766719 48.630000
H 18.624000 1.299719 49.287000
H 20.048000 1.545719 48.838000
O 32.419000 35.644281 37.280000
H 32.269000 35.075281 38.035000
H 33.098000 36.253281 37.569000
O -21.789000 44.415281 39.451000
H -21.741000 44.475281 38.497000
H -22.225000 43.580281 39.618000
O -15.405000 42.664281 59.400000
H -14.533000 42.513281 59.764000
H -15.988000 42.650281 60.159000
O -11.584000 34.265281 63.445000
H -11.296000 34.666281 62.625000
H -12.511000 34.496281 63.512000
O 43.295000 31.344281 64.238000
H 43.906000 32.007281 63.917000
H 42.732000 31.814281 64.853000
O -11.541000 38.210281 53.139000
H -12.315000 37.863281 53.583000
H -10.893000 38.316281 53.836000
O 37.913000 36.272281 62.445000
H 38.248000 35.453281 62.812000
H 38.540000 36.936281 62.730000
O 39.442000 27.949281 62.724000
H 39.167000 27.448281 63.493000
H 40.164000 28.493281 63.037000
O -14.593000 31.608281 63.053000
H -14.829000 31.181281 63.877000
H -15.121000 31.161281 62.392000
O 33.280000 44.764281 59.437000
H 34.029000 44.328281 59.030000
H 33.285000 44.455281 60.343000
O 33.975000 38.005281 62.003000
H 33.394000 38.270281 62.716000
H 33.977000 37.048281 62.037000
O -21.949000 39.280281 57.619000
H -21.321000 38.700281 58.050000
H -22.582000 39.498281 58.303000
O -5.830000 34.103281 63.632000
H -5.641000 34.124281 64.570000
H -5.655000 33.199281 63.371000
O -11.497000 44.912281 51.742000
H -12.311000 45.325281 51.454000
H -11.543000 44.931281 52.697000
O -14.328000 34.465281 59.105000
H -14.440000 33.566281 58.795000
H -14.688000 35.008281 58.404000
O -18.107000 36.621281 57.925000
H -17.260000 36.594281 57.480000
H -17.935000 36.250281 58.790000
O -22.042000 38.200281 63.092000
H -21.333000 38.281281 63.729000
H -21.743000 38.701281 62.333000
O -25.235000 48.760281 57.017000
H -26.121000 48.412281 57.119000
H -24.666000 48.077281 57.374000
O -18.907000 33.787281 54.925000
H -17.968000 33.700281 55.089000
H -18.994000 33.699281 53.976000
O -14.234000 40.145281 35.371000
H -15.104000 40.266281 35.752000
H -14.251000 40.662281 34.565000
O -13.179000 46.502281 56.787000
H -13.300000 45.609281 56.462000
H -13.936000 46.657281 57.351000
O 34.061000 31.816281 56.930000
H 34.692000 32.382281 56.487000
H 33.439000 31.568281 56.246000
O -15.342000 27.880281 64.823000
H -15.464000 28.811281 65.011000
H -14.820000 27.864281 64.020000
O -13.978000 44.176281 55.853000
H -14.155000 43.279281 56.136000
H -14.665000 44.367281 55.215000
O 41.628000 32.691281 57.870000
H 41.480000 31.798281 57.560000
H 42.294000 32.600281 58.552000
O 33.295000 28.609281 61.370000
H 32.697000 28.979281 62.018000
H 33.995000 29.257281 61.292000
O -21.472000 39.574281 60.979000
H -21.100000 38.974281 60.333000
H -22.336000 39.796281 60.632000
O 31.875000 29.872281 63.366000
H 31.713000 30.781281 63.113000
H 31.004000 29.510281 63.529000
O 40.366000 35.667281 61.110000
H 41.091000 35.402281 61.677000
H 39.613000 35.731281 61.698000
O 31.087000 46.024281 37.999000
H 31.507000 45.375281 37.434000
H 31.590000 46.826281 37.859000
O -12.416000 36.240281 60.386000
H -12.926000 35.538281 59.981000
H -12.996000 36.602281 61.056000
O -9.746000 32.968281 60.850000
H -10.608000 33.086281 60.453000
H -9.445000 33.856281 61.042000
O -21.143000 45.609281 63.226000
H -22.083000 45.775281 63.292000
H -20.992000 45.449281 62.294000
O -15.396000 42.093281 56.575000
H -16.316000 41.920281 56.376000
H -15.382000 42.264281 57.517000
O -22.656000 42.775281 59.587000
H -23.226000 42.602281 60.336000
H -21.999000 43.386281 59.921000
O -16.289000 30.422281 61.118000
H -16.885000 29.675281 61.183000
H -16.801000 31.099281 60.677000
O 32.154000 44.183281 36.143000
H 32.133000 44.737281 35.363000
H 31.471000 43.530281 35.993000
O -17.197000 46.915281 56.803000
H -18.043000 47.002281 57.242000
H -16.739000 46.235281 57.297000
O 30.894000 27.892281 59.918000
H 31.628000 28.158281 60.473000
H 31.220000 27.996281 59.024000
O 35.176000 27.227281 54.024000
H 35.354000 28.116281 54.331000
H 35.587000 26.660281 54.677000
O -15.363000 38.021281 60.230000
H -16.127000 38.597281 60.211000
H -15.123000 37.972281 61.156000
O 37.348000 26.783281 37.648000
H 38.061000 27.323281 37.991000
H 37.100000 26.219281 38.381000
O 4.153000 1.410719 57.560000
H 4.838000 1.633719 56.931000
H 4.387000 1.893719 58.352000
O -14.743000 41.153281 53.660000
H -13.822000 41.410281 53.632000
H -15.077000 41.542281 54.468000
O 38.377000 32.423281 58.735000
H 38.243000 32.298281 57.796000
H 39.240000 32.831281 58.802000
O -17.698000 46.510281 62.618000
H -18.175000 45.765281 62.983000
H -18.135000 46.692281 61.786000
O -3.972000 35.225281 61.800000
H -3.370000 35.682281 62.387000
H -4.600000 34.798281 62.384000
O -20.218000 48.145281 64.468000
H -19.934000 48.869281 63.911000
H -20.457000 47.450281 63.855000
O 35.774000 33.482281 55.791000
H 36.208000 34.201281 56.250000
H 36.412000 32.768281 55.804000
O 38.558000 30.665281 36.850000
H 37.630000 30.568281 36.636000
H 38.779000 29.863281 37.325000
O 37.134000 30.170281 59.990000
H 36.349000 29.861281 59.538000
H 37.191000 31.099281 59.764000
O -14.765000 41.743281 63.031000
H -14.236000 41.750281 62.233000
H -14.863000 42.667281 63.262000
O 42.110000 27.899281 59.369000
H 42.562000 28.279281 60.122000
H 42.737000 27.275281 59.003000
O -17.975000 33.484281 52.368000
H -18.226000 34.354281 52.056000
H -17.022000 33.521281 52.440000
O 36.993000 39.340281 53.779000
H 36.926000 38.627281 53.144000
H 36.109000 39.702281 53.828000
O -17.541000 41.604281 60.857000
H -17.597000 40.924281 60.186000
H -18.451000 41.843281 61.033000
O 38.555000 29.597281 57.564000
H 38.141000 29.756281 58.412000
H 38.180000 30.262281 56.986000
O 32.243000 30.616281 55.233000
H 32.202000 30.616281 54.276000
H 31.762000 29.831281 55.493000
O 41.539000 33.416281 35.553000
H 40.927000 32.894281 35.033000
H 41.549000 32.991281 36.410000
O -15.698000 31.875281 37.715000
H -15.827000 32.781281 37.996000
H -15.313000 31.440281 38.476000
O -18.996000 35.178281 62.737000
H -18.927000 34.444281 63.348000
H -18.511000 35.888281 63.158000
O 37.795000 37.627281 55.811000
H 37.574000 38.261281 55.129000
H 38.473000 38.060281 56.330000
O 5.692000 2.084719 39.999000
H 6.162000 2.078719 40.832000
H 4.946000 2.665719 40.148000
O -17.929000 41.665281 55.646000
H -17.829000 41.118281 54.868000
H -18.859000 41.603281 55.866000
O -17.300000 32.814281 59.265000
H -16.491000 32.599281 58.801000
H -17.131000 33.669281 59.661000
O 38.819000 33.848281 63.465000
H 39.359000 33.084281 63.263000
H 38.027000 33.485281 63.861000
O 41.267000 27.117281 54.957000
H 41.774000 27.551281 55.644000
H 41.909000 26.584281 54.487000
O 35.235000 37.009281 37.785000
H 35.832000 36.371281 37.393000
H 35.549000 37.111281 38.683000
O 35.388000 30.715281 63.790000
H 35.029000 31.067281 62.975000
H 35.971000 30.009281 63.510000
O -12.643000 30.353281 62.078000
H -12.052000 30.940281 61.608000
H -13.355000 30.919281 62.379000
O 40.829000 31.788281 38.015000
H 40.015000 31.525281 37.585000
H 40.546000 32.256281 38.800000
O 13.977000 2.626719 51.574000
H 13.542000 3.457719 51.381000
H 14.710000 2.591719 50.959000
O -19.328000 36.624281 55.523000
H -19.044000 35.717281 55.414000
H -19.125000 36.831281 56.436000
O -18.477000 45.509281 60.048000
H -18.900000 46.075281 59.403000
H -17.730000 45.131281 59.584000
O 36.321000 33.240281 60.161000
H 36.224000 34.142281 60.465000
H 37.184000 33.218281 59.746000
O -2.066000 28.716281 63.432000
H -1.420000 28.011281 63.458000
H -2.601000 28.581281 64.214000
O 33.370000 38.899281 36.514000
H 33.580000 39.704281 36.988000
H 34.149000 38.351281 36.615000
O 37.909000 39.840281 64.819000
H 38.319000 39.148281 64.300000
H 37.115000 40.064281 64.334000
O 36.386000 33.177281 64.480000
H 35.606000 33.677281 64.717000
H 36.050000 32.326281 64.198000
O 39.220000 33.926281 52.281000
H 38.287000 33.781281 52.124000
H 39.371000 33.587281 53.163000
O -20.278000 37.702281 59.324000
H -20.831000 37.086281 59.804000
H -19.634000 37.150281 58.879000
O -14.065000 44.123281 64.361000
H -14.095000 44.640281 63.556000
H -13.148000 43.858281 64.442000
O -4.423000 38.474281 64.727000
H -5.378000 38.540281 64.717000
H -4.192000 38.470281 65.656000
O 43.402000 28.538281 52.821000
H 42.533000 28.378281 52.452000
H 43.287000 28.422281 53.764000
O 12.419000 2.210719 53.856000
H 12.860000 2.214719 53.006000
H 12.748000 1.424719 54.294000
O -16.221000 45.146281 58.582000
H -15.740000 44.354281 58.820000
H -15.898000 45.814281 59.188000
O -17.526000 35.964281 60.448000
H -18.111000 36.079281 61.197000
H -16.780000 36.534281 60.637000
O -20.554000 41.384281 56.285000
H -20.701000 40.948281 55.446000
H -20.954000 40.801281 56.931000
O -15.780000 53.120281 58.797000
H -16.127000 54.011281 58.737000
H -16.529000 52.558281 58.600000
O -23.530000 45.142281 50.114000
H -23.479000 44.201281 50.278000
H -24.462000 45.349281 50.190000
O -19.993000 41.886281 62.008000
H -20.505000 41.247281 61.511000
H -20.317000 41.807281 62.905000
O -15.903000 45.129281 54.317000
H -16.072000 46.031281 54.586000
H -16.770000 44.762281 54.146000
O -20.835000 44.410281 60.923000
H -19.948000 44.674281 60.675000
H -20.711000 43.621281 61.450000
O 37.800000 27.255281 64.830000
H 37.478000 27.207281 65.730000
H 37.070000 26.937281 64.298000
O 34.836000 43.514281 57.351000
H 34.205000 42.829281 57.571000
H 34.307000 44.215281 56.970000
O 33.485000 41.307281 63.789000
H 32.992000 40.487281 63.797000
H 33.402000 41.647281 64.679000
O -14.637000 39.194281 51.940000
H -14.770000 39.972281 52.483000
H -14.568000 39.533281 51.048000
O -11.266000 42.276281 58.308000
H -11.862000 41.630281 57.929000
H -10.649000 41.758281 58.826000
O 39.497000 33.356281 55.043000
H 40.406000 33.426281 55.333000
H 39.048000 34.079281 55.482000
O 34.688000 36.238281 56.720000
H 34.228000 35.510281 57.140000
H 34.001000 36.725281 56.265000
O -23.274000 44.704281 45.525000
H -22.643000 45.422281 45.564000
H -24.096000 45.089281 45.828000
O -23.704000 45.890281 63.661000
H -24.130000 45.062281 63.439000
H -24.364000 46.558281 63.475000
O -17.100000 37.189281 63.465000
H -16.917000 38.111281 63.282000
H -17.510000 37.193281 64.330000
O -18.325000 39.581281 50.435000
H -19.097000 40.135281 50.554000
H -17.891000 39.937281 49.660000
O -11.175000 43.520281 64.368000
H -10.966000 43.184281 63.497000
H -10.735000 42.918281 64.969000
O 30.822000 37.019281 59.971000
H 31.233000 36.462281 59.311000
H 30.695000 36.444281 60.726000
O -14.884000 30.548281 35.584000
H -14.175000 30.005281 35.928000
H -15.225000 31.012281 36.350000
O 34.514000 31.278281 61.428000
H 33.689000 31.655281 61.122000
H 35.188000 31.731281 60.921000
O 36.496000 42.091281 60.906000
H 36.575000 41.246281 61.348000
H 35.577000 42.140281 60.643000
O 37.621000 31.369281 55.866000
H 38.275000 31.956281 55.487000
H 37.225000 30.931281 55.112000
O -17.023000 52.981281 51.988000
H -16.745000 53.897281 51.998000
H -16.352000 52.532281 51.474000
O 43.520000 28.427281 61.432000
H 42.881000 28.491281 62.142000
H 44.076000 27.687281 61.674000
O 35.951000 27.004281 59.146000
H 36.378000 27.231281 59.972000
H 35.356000 27.734281 58.975000
O 32.900000 41.396281 57.575000
H 32.055000 41.483281 58.017000
H 33.259000 40.572281 57.904000
O -19.338000 48.881281 60.254000
H -20.107000 48.696281 59.715000
H -18.746000 49.357281 59.672000
O -16.720000 48.486281 37.134000
H -15.786000 48.431281 37.335000
H -17.133000 48.704281 37.970000
O 41.081000 26.668281 44.526000
H 40.537000 26.167281 45.134000
H 40.498000 27.348281 44.187000
O -16.880000 51.551281 37.094000
H -16.219000 51.747281 36.429000
H -17.113000 50.635281 36.938000
O -20.477000 52.837281 43.953000
H -20.802000 51.973281 44.207000
H -19.666000 52.944281 44.449000
O -23.150000 52.608281 52.158000
H -22.565000 51.860281 52.041000
H -23.687000 52.376281 52.916000
O -23.884000 52.543281 46.462000
H -24.761000 52.820281 46.731000
H -23.728000 51.735281 46.951000
O -2.501000 49.513281 47.806000
H -2.917000 49.534281 48.668000
H -1.563000 49.470281 47.993000
O -12.004000 46.256281 46.638000
H -12.311000 45.420281 46.991000
H -11.161000 46.402281 47.068000
O -8.753000 53.120281 43.532000
H -9.091000 53.757281 42.903000
H -8.321000 52.457281 42.994000
O -29.227000 53.106281 37.007000
H -28.872000 53.321281 37.870000
H -30.083000 52.718281 37.190000
O -12.863000 43.673281 47.312000
H -13.431000 43.488281 46.564000
H -12.550000 42.814281 47.595000
O 33.718000 45.349281 44.234000
H 33.631000 45.555281 43.303000
H 33.772000 46.202281 44.664000
O -15.164000 52.617281 41.468000
H -15.948000 53.034281 41.110000
H -14.705000 52.272281 40.703000
O -29.016000 52.786281 52.317000
H -29.551000 53.565281 52.471000
H -28.456000 53.021281 51.577000
O -24.869000 43.942281 37.435000
H -24.079000 44.353281 37.084000
H -24.554000 43.150281 37.870000
O 9.862000 1.360719 40.425000
H 10.277000 0.591719 40.817000
H 8.980000 1.067719 40.198000
O 31.828000 44.163281 51.446000
H 32.365000 44.087281 50.657000
H 32.340000 44.721281 52.032000
O 33.498000 45.933281 41.496000
H 33.939000 46.508281 40.871000
H 33.875000 45.068281 41.335000
O -15.893000 45.740281 44.110000
H -16.202000 46.109281 43.283000
H -15.010000 46.096281 44.217000
O -21.615000 46.947281 49.347000
H -22.334000 46.316281 49.379000
H -20.879000 46.493281 49.759000
O 11.411000 1.063719 47.774000
H 11.416000 1.119719 48.730000
H 12.124000 1.638719 47.496000
O 7.457000 2.717719 48.432000
H 8.187000 2.164719 48.154000
H 7.374000 2.551719 49.371000
O -20.331000 46.998281 42.337000
H -20.042000 46.174281 41.944000
H -20.241000 46.859281 43.280000
O -22.263000 48.862281 41.947000
H -21.423000 48.403281 41.950000
H -22.612000 48.719281 41.067000
O 32.462000 48.403281 38.274000
H 32.748000 49.021281 37.601000
H 33.090000 48.517281 38.987000
O -18.364000 49.203281 50.418000
H -18.020000 48.441281 50.884000
H -17.684000 49.422281 49.781000
O 1.933000 2.421719 47.266000
H 1.734000 1.530719 46.980000
H 2.777000 2.621719 46.860000
O 13.178000 0.557719 41.078000
H 12.969000 1.222719 41.734000
H 13.490000 1.056719 40.323000
O -19.454000 52.207281 36.967000
H -18.628000 51.919281 37.357000
H -20.130000 51.774281 37.489000
O -14.425000 44.452281 40.003000
H -13.958000 44.805281 39.245000
H -13.743000 44.305281 40.658000
O -3.121000 45.251281 38.375000
H -2.309000 45.749281 38.278000
H -3.577000 45.371281 37.542000
O -15.096000 47.770281 52.206000
H -14.440000 48.064281 51.574000
H -14.800000 48.127281 53.043000
O -22.681000 44.882281 36.286000
H -23.100000 45.325281 35.548000
H -21.852000 44.559281 35.933000
O -21.100000 49.688281 49.391000
H -20.221000 49.575281 49.754000
H -21.456000 48.801281 49.346000
O -14.833000 43.521281 45.449000
H -15.594000 43.358281 46.006000
H -15.139000 44.162281 44.807000
O -24.805000 52.260281 42.264000
H -25.667000 52.481281 42.616000
H -24.188000 52.717281 42.835000
O -24.149000 47.557281 43.683000
H -24.144000 46.699281 43.259000
H -23.423000 48.030281 43.277000
O 34.716000 43.212281 35.667000
H 33.960000 43.558281 36.141000
H 35.471000 43.475281 36.194000
O -16.002000 46.741281 41.470000
H -15.599000 45.986281 41.042000
H -15.541000 47.497281 41.108000
O -19.380000 45.776281 50.295000
H -18.755000 46.091281 50.948000
H -18.855000 45.644281 49.505000
O -20.081000 50.110281 62.599000
H -19.585000 50.914281 62.440000
H -19.811000 49.519281 61.896000
O 33.572000 47.863281 45.400000
H 32.971000 47.478281 46.038000
H 34.388000 47.989281 45.885000
O -21.004000 51.107281 38.946000
H -20.619000 51.505281 39.727000
H -21.668000 51.734281 38.659000
O -18.253000 49.438281 39.117000
H -18.607000 50.133281 39.672000
H -18.928000 48.760281 39.121000
O -19.664000 52.223281 41.169000
H -19.929000 52.236281 42.089000
H -18.809000 52.651281 41.160000
O -16.516000 49.578281 44.086000
H -15.788000 50.065281 43.699000
H -17.026000 49.273281 43.335000
O -13.225000 48.385281 42.018000
H -12.478000 48.617281 42.569000
H -13.789000 49.158281 42.039000
O -19.697000 52.562281 59.388000
H -20.591000 52.864281 59.227000
H -19.568000 52.682281 60.329000
O -19.272000 44.248281 37.680000
H -18.370000 43.983281 37.859000
H -19.190000 45.032281 37.137000
O 40.454000 30.615281 44.566000
H 39.804000 31.311281 44.471000
H 41.177000 30.883281 43.998000
O -21.711000 47.360281 46.458000
H -20.803000 47.442281 46.168000
H -21.655000 47.302281 47.411000
O -29.575000 53.032281 46.376000
H -29.055000 52.788281 45.610000
H -30.478000 52.839281 46.124000
O -19.405000 47.460281 44.885000
H -18.669000 46.853281 44.969000
H -18.997000 48.308281 44.706000
O -25.687000 49.295281 42.175000
H -25.170000 48.652281 42.659000
H -25.293000 50.138281 42.400000
O -18.642000 52.995281 64.573000
H -18.024000 53.725281 64.613000
H -18.901000 52.850281 65.483000
O -2.632000 46.898281 44.845000
H -1.951000 47.452281 44.463000
H -2.444000 46.898281 45.783000
O -15.240000 51.518281 50.360000
H -15.833000 50.999281 49.816000
H -14.838000 52.139281 49.753000
O -22.454000 50.013281 51.866000
H -22.020000 49.821281 51.035000
H -23.191000 49.403281 51.899000
O 34.304000 39.881281 53.004000
H 33.863000 40.565281 53.508000
H 34.444000 40.271281 52.141000
O 7.582000 0.203719 43.978000
H 8.521000 0.066719 43.846000
H 7.404000 -0.173281 44.840000
O -18.084000 45.566281 47.830000
H -17.419000 46.247281 47.722000
H -18.345000 45.342281 46.937000
O -24.826000 49.145281 38.534000
H -24.980000 48.608281 37.756000
H -23.922000 48.953281 38.783000
O -2.292000 45.955281 47.129000
H -1.843000 45.323281 46.567000
H -2.542000 45.452281 47.903000
O 0.026000 1.616719 50.996000
H -0.223000 0.744719 50.693000
H -0.793000 2.007719 51.302000
O 32.517000 28.935281 49.660000
H 32.885000 28.052281 49.618000
H 31.595000 28.821281 49.430000
O -15.709000 28.034281 56.458000
H -14.883000 28.412281 56.758000
H -15.568000 27.855281 55.528000
O -22.623000 51.171281 64.018000
H -23.229000 50.433281 64.075000
H -21.766000 50.768281 63.883000
O -7.388000 50.725281 35.388000
H -8.225000 50.270281 35.484000
H -7.248000 50.773281 34.442000
O -23.594000 50.155281 47.636000
H -22.710000 50.157281 48.004000
H -24.170000 50.257281 48.394000
O 35.438000 27.093281 51.192000
H 34.548000 26.987281 50.854000
H 35.318000 27.370281 52.100000
O -15.990000 48.627281 63.965000
H -16.520000 48.641281 64.762000
H -16.327000 47.884281 63.465000
O -15.824000 51.297281 55.875000
H -16.487000 50.883281 56.428000
H -15.876000 50.826281 55.044000
O -27.595000 50.585281 37.298000
H -26.854000 50.707281 37.891000
H -28.007000 51.448281 37.248000
O -2.604000 50.497281 45.161000
H -1.882000 50.036281 44.734000
H -2.743000 50.019281 45.979000
O -27.993000 48.708281 50.816000
H -27.728000 47.972281 50.264000
H -27.198000 48.948281 51.293000
O -21.315000 47.886281 54.510000
H -21.628000 47.913281 53.605000
H -21.911000 47.281281 54.951000
O -20.510000 44.122281 56.836000
H -21.212000 44.672281 56.489000
H -20.775000 43.228281 56.620000
O -27.986000 52.115281 44.496000
H -27.821000 52.553281 43.661000
H -28.207000 51.215281 44.255000
O -2.045000 53.090281 45.492000
H -2.318000 52.271281 45.079000
H -2.141000 53.749281 44.805000
O 27.769000 1.724719 58.606000
H 28.523000 1.339719 59.053000
H 27.288000 2.179719 59.297000
O -16.896000 50.255281 48.402000
H -17.673000 50.656281 48.014000
H -16.608000 49.614281 47.753000
O -23.967000 45.865281 39.700000
H -23.117000 45.464281 39.521000
H -24.336000 46.043281 38.835000
O -13.901000 45.822281 49.165000
H -13.865000 44.938281 48.801000
H -14.122000 45.693281 50.088000
O -21.722000 42.497281 46.039000
H -21.444000 42.183281 46.899000
H -22.434000 43.110281 46.225000
O -27.262000 51.981281 62.925000
H -27.542000 52.475281 63.696000
H -28.038000 51.487281 62.661000
O 30.513000 32.038281 58.035000
H 29.581000 31.986281 58.248000
H 30.626000 31.429281 57.305000
O -17.828000 51.897281 44.984000
H -18.186000 51.638281 45.833000
H -17.414000 51.103281 44.646000
O -26.843000 48.143281 40.024000
H -26.695000 48.487281 40.905000
H -26.043000 48.358281 39.544000
O -22.072000 48.694281 38.927000
H -21.707000 49.575281 39.013000
H -21.308000 48.117281 38.925000
O -13.193000 49.632281 35.065000
H -14.089000 49.751281 34.751000
H -13.288000 49.138281 35.880000
O -18.017000 48.583281 42.128000
H -18.839000 48.096281 42.191000
H -17.366000 47.925281 41.886000
O -7.414000 45.043281 47.266000
H -7.803000 44.340281 46.746000
H -7.152000 44.620281 48.084000
O 38.089000 28.325281 49.832000
H 37.512000 27.823281 50.408000
H 38.360000 27.699281 49.160000
O 40.419000 27.589281 40.711000
H 41.325000 27.876281 40.824000
H 40.489000 26.669281 40.457000
O 34.308000 31.096281 49.747000
H 33.686000 30.369281 49.701000
H 35.055000 30.806281 49.225000
O -18.313000 44.897281 45.289000
H -18.819000 44.384281 44.660000
H -17.471000 45.044281 44.857000
O -13.652000 49.308281 50.443000
H -14.131000 50.131281 50.349000
H -13.541000 48.991281 49.547000
O 37.046000 30.999281 53.166000
H 36.697000 31.537281 52.455000
H 37.806000 30.559281 52.785000
O 31.665000 47.156281 47.169000
H 31.847000 47.877281 47.772000
H 30.719000 47.026281 47.229000
O -4.968000 50.994281 59.534000
H -4.027000 51.147281 59.451000
H -5.373000 51.737281 59.087000
O -16.325000 48.534281 46.529000
H -16.377000 48.963281 45.675000
H -15.412000 48.257281 46.603000
O 5.548000 1.473719 36.123000
H 5.889000 1.989719 36.853000
H 6.317000 1.034719 35.760000
O -26.369000 52.962281 47.108000
H -26.333000 53.865281 46.791000
H -27.124000 52.581281 46.661000
O 33.660000 45.711281 53.171000
H 34.338000 45.210281 53.623000
H 33.651000 46.558281 53.616000
O -14.301000 50.648281 43.009000
H -14.063000 51.201281 43.752000
H -14.708000 51.248281 42.384000
O -19.029000 52.620281 61.951000
H -18.160000 52.470281 61.578000
H -18.870000 52.747281 62.886000
O -2.773000 49.036281 41.381000
H -3.587000 49.346281 41.777000
H -2.856000 48.083281 41.374000
O -14.397000 45.157281 51.851000
H -15.012000 44.422281 51.849000
H -14.884000 45.875281 52.254000
O -13.797000 52.305281 47.973000
H -12.900000 52.093281 47.714000
H -13.913000 53.218281 47.712000
O -21.353000 50.085281 44.418000
H -21.589000 49.501281 43.697000
H -21.685000 49.646281 45.201000
O 7.846000 0.197719 35.468000
H 7.868000 -0.720281 35.197000
H 8.625000 0.583719 35.068000
O 30.221000 51.018281 37.000000
H 30.611000 50.365281 36.419000
H 30.190000 50.590281 37.856000
O -15.445000 41.852281 49.241000
H -14.513000 41.640281 49.195000
H -15.571000 42.188281 50.128000
O 34.800000 42.872281 39.837000
H 35.132000 43.100281 40.706000
H 35.421000 43.275281 39.230000
O -26.650000 53.110281 49.746000
H -26.123000 52.969281 48.960000
H -26.587000 54.051281 49.912000
O -9.632000 46.681281 47.630000
H -9.734000 46.482281 48.561000
H -8.936000 46.095281 47.334000
O -19.390000 43.091281 43.177000
H -18.732000 43.147281 42.484000
H -18.953000 42.616281 43.885000
O 34.143000 29.026281 42.505000
H 34.090000 28.113281 42.788000
H 35.065000 29.258281 42.613000
O -15.596000 49.221281 40.402000
H -15.024000 49.732281 39.829000
H -16.447000 49.654281 40.339000
O -22.507000 53.140281 38.156000
H -23.349000 52.908281 38.547000
H -22.710000 53.320281 37.238000
O -12.955000 39.576281 42.866000
H -13.355000 39.627281 41.998000
H -13.589000 39.994281 43.448000
O -2.679000 29.935281 41.000000
H -2.950000 30.093281 41.905000
H -3.453000 29.562281 40.580000
O 16.319000 1.199719 37.853000
H 15.411000 1.307719 38.137000
H 16.533000 2.022719 37.414000
O -22.668000 50.563281 60.966000
H -22.436000 49.979281 60.244000
H -21.868000 50.629281 61.488000
O -16.238000 50.435281 53.570000
H -17.151000 50.558281 53.309000
H -15.844000 49.952281 52.844000
O 36.936000 28.874281 62.275000
H 37.183000 29.331281 61.471000
H 37.769000 28.668281 62.700000
O 8.679000 0.790719 59.131000
H 7.802000 0.610719 59.471000
H 8.896000 1.657719 59.474000
O -17.482000 51.019281 59.121000
H -17.667000 50.549281 58.308000
H -18.200000 51.647281 59.204000
O -0.559000 1.098719 39.076000
H -0.437000 1.951719 38.659000
H -1.365000 0.755719 38.691000
O 38.733000 27.095281 55.846000
H 39.589000 27.349281 55.500000
H 38.589000 27.684281 56.586000
O 30.075000 52.231281 54.662000
H 30.412000 52.016281 55.532000
H 30.654000 52.924281 54.345000
O -10.436000 28.019281 58.224000
H -10.849000 27.287281 57.766000
H -9.593000 27.674281 58.518000
O -23.915000 46.981281 58.724000
H -23.796000 46.037281 58.830000
H -24.689000 47.185281 59.248000
O 16.724000 0.198719 56.638000
H 16.578000 0.067719 55.701000
H 15.987000 -0.242281 57.060000
O -25.037000 52.325281 54.829000
H -25.974000 52.175281 54.707000
H -24.644000 51.454281 54.773000
O -7.228000 42.419281 55.740000
H -7.121000 43.227281 55.238000
H -8.123000 42.137281 55.553000
O 8.664000 0.912719 62.125000
H 7.889000 0.354719 62.052000
H 9.337000 0.453719 61.621000
O -24.225000 49.679281 54.618000
H -23.276000 49.553281 54.609000
H -24.516000 49.256281 55.426000
O 33.386000 48.121281 64.572000
H 34.025000 48.828281 64.657000
H 32.586000 48.473281 64.963000
O -10.707000 28.198281 62.531000
H -11.347000 28.834281 62.210000
H -9.878000 28.676281 62.540000
O 10.003000 1.704719 64.224000
H 9.475000 1.709719 63.425000
H 10.622000 0.985719 64.098000
O -14.979000 48.094281 58.632000
H -14.362000 48.794281 58.846000
H -15.256000 47.750281 59.482000
O -27.957000 52.070281 58.641000
H -27.194000 51.497281 58.563000
H -27.643000 52.927281 58.353000
O -25.476000 46.299281 51.946000
H -25.285000 47.225281 52.100000
H -26.337000 46.163281 52.342000
O 35.930000 29.456281 36.813000
H 36.285000 28.568281 36.853000
H 35.436000 29.480281 35.993000
O -2.149000 42.734281 38.280000
H -2.537000 43.582281 38.062000
H -1.674000 42.477281 37.489000
O -19.638000 46.569281 57.798000
H -20.407000 47.108281 57.613000
H -19.927000 45.672281 57.626000
O -26.582000 47.011281 60.064000
H -26.384000 46.927281 60.997000
H -27.242000 46.338281 59.897000
O -22.599000 45.739281 55.949000
H -23.073000 45.728281 56.780000
H -23.115000 45.177281 55.371000
O -25.881000 47.616281 62.880000
H -25.813000 48.384281 62.312000
H -26.770000 47.656281 63.232000
O -24.700000 47.372281 36.445000
H -25.463000 47.754281 36.012000
H -23.951000 47.814281 36.046000
O -14.091000 27.847281 62.450000
H -13.618000 28.679281 62.435000
H -13.790000 27.386281 61.667000
O 11.301000 1.402719 38.032000
H 11.144000 0.615719 37.512000
H 10.636000 1.373719 38.720000
O 13.033000 2.481719 58.745000
H 12.962000 2.017719 59.579000
H 12.649000 1.883719 58.104000
O -18.273000 47.404281 54.295000
H -17.921000 47.141281 55.145000
H -19.223000 47.365281 54.406000
O -27.491000 48.267281 54.315000
H -27.620000 48.297281 55.263000
H -27.622000 49.170281 54.026000
O 4.845000 0.952719 62.050000
H 4.321000 0.281719 62.488000
H 5.254000 0.495719 61.315000
O 14.754000 0.053719 61.533000
H 14.600000 -0.815281 61.903000
H 14.819000 -0.095281 60.590000
O 32.139000 45.794281 64.033000
H 32.692000 46.486281 64.393000
H 31.566000 46.243281 63.412000
O -20.581000 52.600281 55.341000
H -21.039000 53.325281 55.766000
H -19.785000 52.995281 54.985000
O 4.948000 3.353719 63.425000
H 5.060000 2.535719 62.942000
H 5.430000 4.002719 62.913000
O 8.489000 1.194719 56.554000
H 8.174000 2.074719 56.347000
H 8.605000 1.197719 57.504000
O 35.706000 39.954281 63.155000
H 35.280000 39.270281 62.639000
H 35.017000 40.600281 63.312000
O 40.197000 26.382281 60.461000
H 40.828000 26.927281 59.990000
H 39.977000 26.890281 61.242000
O 36.019000 43.754281 63.231000
H 35.593000 43.432281 64.026000
H 36.359000 42.968281 62.805000
O -11.543000 48.062281 53.674000
H -10.939000 47.588281 54.247000
H -12.413000 47.795281 53.970000
O -25.520000 50.263281 61.654000
H -24.757000 50.804281 61.453000
H -26.155000 50.874281 62.029000
O -17.922000 49.724281 56.592000
H -17.725000 48.822281 56.339000
H -18.817000 49.869281 56.287000
O 11.429000 0.385719 50.451000
H 12.113000 -0.103281 50.907000
H 10.611000 0.063719 50.829000
O 2.445000 2.677719 61.566000
H 2.555000 3.628719 61.565000
H 3.326000 2.334719 61.715000
O -1.389000 46.857281 61.293000
H -1.361000 46.454281 60.425000
H -2.294000 46.741281 61.582000
O -21.482000 48.749281 58.624000
H -22.247000 48.222281 58.393000
H -21.281000 49.243281 57.828000
O 5.914000 2.190719 55.389000
H 6.089000 1.291719 55.110000
H 6.766000 2.624719 55.346000
O 43.448000 29.102281 55.563000
H 42.738000 29.270281 56.182000
H 44.050000 28.530281 56.039000
O -22.078000 46.225281 52.448000
H -22.500000 45.949281 51.634000
H -21.432000 45.542281 52.627000
O -10.624000 46.810281 56.995000
H -10.403000 45.897281 56.814000
H -11.575000 46.852281 56.896000
O -24.234000 52.644281 60.214000
H -23.516000 52.093281 60.527000
H -24.553000 52.201281 59.428000
O -9.795000 44.356281 57.034000
H -8.983000 44.479281 57.526000
H -10.190000 43.571281 57.414000
O 41.298000 29.693281 57.267000
H 40.361000 29.509281 57.204000
H 41.543000 29.391281 58.142000
O -22.210000 48.812281 36.284000
H -21.779000 48.775281 37.138000
H -21.498000 48.716281 35.652000
O 31.108000 48.071281 51.757000
H 30.981000 49.018281 51.810000
H 32.016000 47.965281 51.475000
O 39.875000 34.669281 58.325000
H 40.560000 34.081281 58.007000
H 40.071000 34.787281 59.254000
O -20.599000 49.875281 56.226000
H -20.781000 50.733281 55.845000
H -20.785000 49.255281 55.521000
O -0.068000 1.614719 35.662000
H -0.353000 1.104719 34.904000
H 0.691000 1.138719 36.000000
O -26.168000 49.884281 35.360000
H -26.171000 50.523281 34.647000
H -26.833000 50.203281 35.970000
O -17.737000 52.762281 54.593000
H -17.502000 52.760281 53.666000
H -16.998000 52.339281 55.030000
O -5.385000 31.953281 61.972000
H -5.638000 32.310281 61.121000
H -5.655000 31.035281 61.938000
O -13.890000 48.198281 37.313000
H -14.055000 47.358281 36.886000
H -13.545000 47.965281 38.175000
O 32.806000 45.731281 56.225000
H 32.340000 46.228281 55.552000
H 32.157000 45.113281 56.560000
O 40.651000 27.772281 52.345000
H 40.512000 27.495281 53.250000
H 40.020000 28.479281 52.211000
O -14.053000 48.322281 54.918000
H -13.908000 47.572281 55.495000
H -14.233000 49.051281 55.512000
O -16.362000 50.571281 62.021000
H -16.132000 49.918281 62.683000
H -16.311000 50.098281 61.191000
O -15.597000 46.805281 60.790000
H -16.239000 46.781281 61.500000
H -14.781000 46.511281 61.195000
O 32.281000 27.774281 57.528000
H 32.306000 26.864281 57.233000
H 31.678000 28.206281 56.923000
O -12.778000 37.833281 64.607000
H -11.956000 37.944281 64.129000
H -12.918000 38.674281 65.042000
O -9.018000 27.251281 44.917000
H -9.967000 27.132281 44.959000
H -8.805000 27.761281 45.699000
O -15.126000 29.770281 45.160000
H -14.471000 30.026281 44.512000
H -15.859000 29.436281 44.643000
O -5.844000 35.456281 48.039000
H -5.715000 34.541281 47.789000
H -4.994000 35.868281 47.887000
O -7.886000 36.298281 43.647000
H -7.878000 37.145281 44.094000
H -7.526000 36.482281 42.779000
O -2.845000 33.774281 44.682000
H -2.332000 33.191281 44.122000
H -2.325000 34.575281 44.735000
O -4.126000 35.972281 41.338000
H -4.563000 35.147281 41.548000
H -3.803000 36.294281 42.179000
O -4.927000 37.228281 54.843000
H -5.373000 36.602281 54.272000
H -4.079000 36.824281 55.027000
O -10.710000 44.133281 43.731000
H -11.122000 44.872281 44.178000
H -10.651000 43.451281 44.400000
O -6.025000 32.793281 47.579000
H -5.966000 32.902281 46.630000
H -5.302000 32.205281 47.799000
O -8.094000 43.352281 37.200000
H -8.887000 43.827281 36.951000
H -7.600000 43.973281 37.735000
O 32.181000 35.570281 58.116000
H 31.642000 34.981281 57.588000
H 32.922000 35.032281 58.395000
O -6.031000 39.676281 40.619000
H -5.667000 40.448281 41.052000
H -6.684000 40.027281 40.012000
O -13.835000 41.028281 45.629000
H -14.471000 40.386281 45.313000
H -14.194000 41.874281 45.358000
O -8.145000 48.883281 47.432000
H -8.711000 49.382281 48.022000
H -8.541000 48.012281 47.399000
O -7.927000 41.047281 39.101000
H -8.056000 41.936281 38.770000
H -8.628000 40.925281 39.741000
O -8.846000 32.773281 47.967000
H -7.894000 32.679281 47.945000
H -9.149000 32.336281 47.171000
O -9.659000 45.376281 36.840000
H -9.307000 45.650281 35.993000
H -9.147000 45.866281 37.483000
O -7.851000 38.929281 53.365000
H -8.145000 38.628281 52.504000
H -7.325000 39.707281 53.180000
O -11.937000 40.753281 39.127000
H -12.274000 41.052281 38.282000
H -12.718000 40.619281 39.663000
O 30.753000 48.327281 35.580000
H 30.221000 47.552281 35.397000
H 30.479000 48.966281 34.922000
O -11.114000 37.731281 50.546000
H -10.159000 37.798281 50.533000
H -11.365000 38.041281 51.416000
O 17.084000 2.602719 57.738000
H 17.004000 1.688719 57.465000
H 16.214000 2.973719 57.592000
O -10.305000 34.501281 37.787000
H -10.187000 33.554281 37.858000
H -11.217000 34.648281 38.038000
O 30.799000 27.116281 43.201000
H 30.411000 26.298281 43.510000
H 30.435000 27.239281 42.324000
O -9.041000 28.713281 47.114000
H -9.870000 28.284281 47.327000
H -9.294000 29.579281 46.794000
O 29.949000 33.996281 53.837000
H 30.406000 34.563281 53.216000
H 30.159000 33.107281 53.549000
O -4.760000 30.464281 48.713000
H -4.771000 30.430281 49.670000
H -5.600000 30.088281 48.450000
O 33.404000 31.106281 35.694000
H 33.832000 30.780281 34.903000
H 32.535000 30.704281 35.680000
O -10.815000 36.527281 45.122000
H -10.096000 36.262281 45.696000
H -11.585000 36.532281 45.690000
O -8.275000 48.957281 52.609000
H -7.911000 48.269281 52.052000
H -8.542000 48.503281 53.409000
O -9.856000 29.530281 41.437000
H -10.268000 29.342281 40.594000
H -10.512000 29.277281 42.087000
O 17.323000 2.866719 40.886000
H 17.867000 3.392719 41.472000
H 16.608000 2.552719 41.439000
O -6.533000 37.266281 41.454000
H -5.658000 36.886281 41.372000
H -6.460000 38.126281 41.040000
O -9.494000 44.574281 41.415000
H -9.911000 44.397281 42.258000
H -9.976000 44.033281 40.790000
O -7.346000 32.672281 39.929000
H -7.603000 33.415281 40.474000
H -8.103000 32.517281 39.363000
O -4.991000 40.482281 49.097000
H -4.589000 40.718281 48.261000
H -5.917000 40.699281 48.988000
O 31.118000 42.360281 40.245000
H 30.496000 42.441281 39.522000
H 31.676000 43.135281 40.170000
O 43.337000 30.961281 51.377000
H 43.498000 31.817281 51.774000
H 43.362000 30.347281 52.110000
O -6.593000 39.917281 64.988000
H -7.252000 40.035281 65.672000
H -7.072000 39.524281 64.258000
O -6.648000 44.181281 49.639000
H -5.806000 43.740281 49.749000
H -6.639000 44.881281 50.292000
O -3.177000 35.776281 48.295000
H -3.200000 34.883281 47.949000
H -3.116000 35.664281 49.243000
O -7.338000 30.631281 44.166000
H -7.063000 30.624281 43.249000
H -6.696000 31.189281 44.605000
O -11.095000 29.669281 38.945000
H -10.883000 29.766281 38.017000
H -11.358000 28.754281 39.038000
O 22.114000 0.611719 52.914000
H 21.919000 -0.319281 53.024000
H 22.868000 0.767719 53.482000
O -7.348000 40.857281 43.998000
H -7.933000 40.909281 43.242000
H -6.473000 40.765281 43.619000
O -4.387000 39.825281 44.527000
H -4.057000 38.932281 44.424000
H -4.148000 40.265281 43.712000
O 30.492000 27.350281 45.868000
H 31.199000 26.860281 46.287000
H 30.597000 27.172281 44.933000
O 20.867000 1.528719 41.744000
H 21.059000 1.367719 40.820000
H 21.287000 2.367719 41.934000
O -9.972000 32.063281 64.666000
H -9.509000 31.599281 63.968000
H -10.761000 32.403281 64.245000
O 30.199000 33.211281 42.065000
H 29.254000 33.110281 41.948000
H 30.583000 32.765281 41.310000
O 34.569000 40.579281 42.607000
H 34.804000 41.493281 42.447000
H 34.746000 40.137281 41.777000
O -11.025000 36.168281 40.620000
H -11.581000 36.321281 41.384000
H -10.333000 35.589281 40.938000
O -2.324000 40.354281 42.411000
H -2.260000 39.956281 41.543000
H -2.026000 41.254281 42.286000
O -8.386000 28.595281 35.406000
H -7.931000 28.560281 34.564000
H -7.685000 28.597281 36.058000
O -7.205000 38.232281 45.406000
H -6.833000 38.925281 44.861000
H -7.992000 38.622281 45.786000
O -13.954000 28.084281 46.714000
H -13.716000 28.569281 47.504000
H -14.305000 28.748281 46.121000
O 4.537000 3.518719 43.534000
H 5.269000 3.113719 43.069000
H 3.756000 3.130719 43.138000
O 27.983000 2.998719 47.973000
H 28.408000 3.313719 47.175000
H 27.195000 3.535719 48.053000
O -9.865000 38.407281 39.778000
H -10.277000 37.607281 40.103000
H -10.595000 38.949281 39.480000
O -6.851000 30.261281 41.473000
H -6.989000 31.092281 41.018000
H -7.710000 29.839281 41.470000
O -1.637000 52.543281 49.909000
H -0.806000 52.693281 49.458000
H -2.304000 52.788281 49.268000
O 30.855000 38.261281 55.841000
H 30.266000 37.556281 55.571000
H 31.733000 37.891281 55.743000
O -2.477000 32.233281 37.852000
H -3.225000 32.161281 38.446000
H -2.616000 33.060281 37.390000
O -9.190000 32.798281 50.773000
H -9.308000 33.692281 51.096000
H -8.973000 32.905281 49.847000
O -9.724000 46.392281 50.406000
H -10.340000 45.740281 50.741000
H -10.146000 47.233281 50.583000
O -4.187000 38.540281 37.675000
H -4.114000 39.245281 38.318000
H -5.091000 38.236281 37.753000
O -9.350000 31.289281 45.863000
H -10.138000 31.448281 45.344000
H -8.629000 31.387281 45.242000
O -1.543000 40.625281 49.144000
H -1.621000 41.313281 48.483000
H -1.892000 39.842281 48.718000
O -9.190000 39.439281 46.763000
H -9.890000 39.138281 47.342000
H -9.642000 39.910281 46.064000
O -10.697000 35.124281 51.890000
H -11.525000 34.887281 51.472000
H -10.611000 36.064281 51.734000
O 30.960000 28.683281 52.099000
H 31.712000 29.021281 51.612000
H 30.456000 28.192281 51.450000
O -11.514000 27.896281 48.245000
H -11.539000 26.944281 48.342000
H -11.996000 28.227281 49.003000
O -4.101000 37.030281 43.830000
H -4.867000 36.495281 44.041000
H -3.379000 36.611281 44.298000
O -3.911000 32.745281 41.677000
H -4.255000 32.358281 40.872000
H -3.932000 32.031281 42.314000
O -11.906000 34.751281 54.256000
H -11.441000 34.630281 53.428000
H -12.027000 33.864281 54.595000
O -6.557000 36.928281 50.428000
H -5.942000 37.661281 50.406000
H -6.243000 36.330281 49.749000
O -2.183000 30.307281 48.098000
H -2.988000 30.810281 48.224000
H -2.060000 30.286281 47.149000
O 41.676000 27.422281 37.402000
H 41.807000 26.505281 37.645000
H 41.903000 27.459281 36.473000
O 29.782000 36.319281 44.782000
H 29.840000 37.252281 44.575000
H 30.577000 36.134281 45.281000
O 33.143000 41.516281 54.832000
H 32.230000 41.441281 54.555000
H 33.116000 41.392281 55.781000
O -7.784000 31.440281 52.708000
H -7.475000 32.062281 53.367000
H -8.163000 31.987281 52.020000
O 39.903000 35.685281 35.362000
H 39.596000 35.424281 34.493000
H 40.671000 35.136281 35.520000
O 30.570000 38.897281 44.362000
H 30.165000 39.614281 43.875000
H 31.463000 38.849281 44.021000
O -10.652000 39.144281 44.279000
H -10.574000 38.289281 44.703000
H -11.593000 39.264281 44.153000
O -14.162000 28.578281 49.736000
H -14.982000 29.063281 49.639000
H -13.585000 29.174281 50.213000
O -12.474000 29.310281 54.379000
H -12.305000 28.429281 54.044000
H -11.653000 29.781281 54.239000
O -6.005000 35.450281 45.228000
H -6.859000 35.569281 44.811000
H -6.073000 35.926281 46.055000
O -12.895000 34.822281 38.865000
H -12.465000 35.339281 39.546000
H -12.848000 33.920281 39.182000
O -11.172000 51.627281 47.356000
H -10.852000 51.400281 46.483000
H -10.596000 51.153281 47.954000
O -6.058000 48.085281 40.458000
H -6.616000 48.827281 40.223000
H -5.746000 48.291281 41.339000
O -4.577000 28.093281 51.266000
H -4.419000 29.030281 51.144000
H -4.907000 27.792281 50.420000
O -11.820000 32.030281 44.852000
H -11.523000 32.271281 43.975000
H -12.233000 32.823281 45.192000
O -12.876000 30.348281 51.352000
H -12.276000 31.061281 51.573000
H -12.500000 29.578281 51.779000
O -5.146000 29.234281 39.695000
H -5.729000 29.242281 40.454000
H -5.687000 28.897281 38.981000
O -7.147000 44.778281 53.938000
H -6.373000 44.530281 53.432000
H -7.385000 45.643281 53.605000
O -5.264000 26.889281 48.303000
H -5.626000 27.774281 48.261000
H -5.730000 26.406281 47.621000
O -4.065000 39.029281 52.830000
H -3.870000 39.824281 53.327000
H -4.332000 38.391281 53.492000
O -12.388000 32.220281 39.388000
H -13.219000 31.814281 39.633000
H -11.832000 31.487281 39.124000
O -8.792000 35.633281 46.937000
H -8.655000 34.835281 47.448000
H -7.984000 36.133281 47.052000
O -1.811000 39.056281 40.022000
H -0.869000 39.183281 40.137000
H -1.903000 38.127281 39.810000
O 35.175000 33.360281 38.070000
H 35.145000 33.365281 37.113000
H 35.167000 32.433281 38.306000
O 34.721000 40.581281 50.429000
H 35.365000 41.146281 50.001000
H 33.939000 40.651281 49.881000
O -14.029000 34.783281 42.263000
H -14.529000 35.076281 41.501000
H -13.388000 35.478281 42.410000
O -2.282000 44.756281 49.861000
H -1.392000 44.568281 50.157000
H -2.596000 45.434281 50.459000
O 32.714000 33.734281 39.204000
H 32.519000 32.882281 39.593000
H 33.615000 33.654281 38.890000
O -10.092000 44.801281 54.338000
H -10.215000 44.375281 55.186000
H -9.271000 44.439281 54.004000
O 33.997000 31.315281 45.126000
H 34.204000 31.516281 44.213000
H 34.475000 30.506281 45.308000
O -4.717000 41.122281 54.775000
H -4.038000 40.734281 55.328000
H -5.538000 40.783281 55.130000
O -8.567000 39.991281 36.797000
H -8.414000 40.453281 37.621000
H -8.562000 39.064281 37.036000
O -11.315000 33.059281 42.212000
H -12.057000 33.657281 42.120000
H -11.519000 32.331281 41.625000
O 35.222000 39.484281 40.217000
H 35.540000 38.585281 40.308000
H 35.845000 39.900281 39.622000
O -2.575000 36.277281 55.329000
H -2.672000 36.023281 56.247000
H -2.289000 35.477281 54.888000
O -2.956000 34.707281 36.658000
H -2.429000 35.037281 35.930000
H -2.692000 35.242281 37.407000
O -5.995000 35.736281 52.890000
H -5.404000 35.002281 52.718000
H -6.240000 36.055281 52.021000
O 34.503000 37.525281 45.802000
H 34.172000 38.084281 45.098000
H 34.860000 38.137281 46.446000
O 24.822000 3.240719 41.801000
H 23.926000 3.517719 41.990000
H 24.776000 2.861719 40.924000
O -4.651000 41.907281 36.099000
H -4.503000 41.709281 37.024000
H -5.319000 41.280281 35.823000
O -7.367000 46.158281 42.544000
H -7.880000 45.467281 42.125000
H -6.756000 45.692281 43.114000
O -7.860000 40.273281 48.988000
H -8.251000 40.251281 48.115000
H -8.137000 41.112281 49.355000
O -8.732000 29.120281 51.401000
H -8.550000 28.270281 51.803000
H -8.230000 29.745281 51.924000
O -16.200000 35.073281 40.158000
H -16.139000 36.012281 40.336000
H -16.965000 34.987281 39.589000
O 30.644000 36.963281 35.805000
H 30.499000 37.819281 36.209000
H 31.169000 36.481281 36.444000
O -11.372000 27.849281 51.231000
H -10.556000 28.318281 51.058000
H -11.093000 26.988281 51.543000
O -4.719000 30.903281 51.391000
H -5.492000 31.241281 51.843000
H -4.164000 31.671281 51.257000
O -4.349000 42.776281 50.168000
H -4.521000 41.918281 49.779000
H -3.460000 42.993281 49.887000
O -2.595000 28.516281 36.285000
H -1.974000 29.241281 36.222000
H -2.128000 27.841281 36.778000
O -4.925000 32.000281 39.203000
H -5.794000 32.336281 39.426000
H -4.956000 31.075281 39.448000
O -6.453000 36.879281 38.202000
H -7.342000 37.075281 37.908000
H -6.533000 36.768281 39.149000
O -5.131000 43.166281 45.264000
H -5.565000 44.015281 45.348000
H -5.794000 42.595281 44.878000
O -5.642000 32.701281 45.043000
H -4.708000 32.507281 44.953000
H -5.702000 33.650281 44.930000
O 33.346000 35.250281 62.345000
H 32.442000 35.185281 62.035000
H 33.315000 34.930281 63.246000
O -8.668000 38.401281 50.671000
H -8.421000 39.092281 50.056000
H -7.960000 37.760281 50.608000
O -9.133000 40.024281 41.917000
H -9.592000 39.631281 42.659000
H -9.172000 39.359281 41.230000
O -2.677000 35.781281 51.056000
H -2.920000 36.705281 51.108000
H -1.744000 35.765281 51.272000
O -12.143000 28.104281 42.581000
H -11.967000 27.801281 43.472000
H -12.708000 28.868281 42.694000
O 16.288000 2.537719 50.348000
H 16.068000 2.341719 49.437000
H 16.589000 3.445719 50.332000
O 30.213000 38.540281 47.137000
H 29.523000 37.878281 47.177000
H 30.343000 38.695281 46.202000
O 26.072000 1.514719 43.276000
H 25.759000 2.266719 42.773000
H 25.409000 1.386719 43.954000
O 30.464000 39.295281 36.981000
H 29.937000 39.263281 37.779000
H 31.367000 39.203281 37.286000
O -4.288000 41.235281 46.762000
H -4.622000 41.966281 46.242000
H -4.344000 40.479281 46.177000
O 2.497000 2.369719 39.589000
H 3.157000 1.705719 39.392000
H 2.388000 2.850719 38.768000
O 30.283000 30.856281 35.790000
H 30.298000 31.417281 35.015000
H 29.827000 31.374281 36.453000
O -9.109000 34.488281 41.329000
H -8.809000 34.990281 42.087000
H -9.802000 33.924281 41.673000
O -7.656000 38.931281 62.719000
H -7.268000 39.745281 62.399000
H -7.027000 38.252281 62.473000
O -15.606000 36.140281 56.990000
H -15.435000 36.987281 56.577000
H -15.634000 35.519281 56.263000
O -7.637000 32.664281 36.088000
H -8.181000 32.825281 35.317000
H -7.052000 33.420281 36.132000
O -16.287000 31.136281 55.659000
H -15.776000 30.894281 54.887000
H -16.916000 30.423281 55.764000
O 32.253000 38.644281 64.089000
H 31.458000 38.150281 64.292000
H 32.772000 38.605281 64.892000
O -6.731000 42.026281 59.002000
H -7.081000 42.908281 58.877000
H -6.713000 41.647281 58.123000
O -8.836000 37.336281 37.564000
H -9.095000 36.416281 37.628000
H -9.239000 37.753281 38.325000
O -9.865000 48.660281 59.284000
H -9.996000 48.030281 58.576000
H -9.307000 49.338281 58.901000
O -5.310000 44.184281 52.295000
H -4.650000 44.124281 52.986000
H -4.957000 43.655281 51.580000
O -14.245000 36.603281 37.136000
H -13.799000 36.630281 36.289000
H -13.612000 36.193281 37.727000
O -6.448000 39.191281 56.094000
H -5.968000 38.482281 55.666000
H -7.312000 39.178281 55.682000
O -15.099000 38.573281 55.876000
H -14.401000 39.160281 56.168000
H -14.702000 38.057281 55.175000
O -12.452000 40.101281 57.229000
H -11.850000 39.947281 56.500000
H -12.524000 39.251281 57.663000
O -10.437000 39.381281 63.577000
H -10.735000 39.348281 62.668000
H -9.570000 38.974281 63.561000
O 26.936000 0.564719 63.271000
H 26.578000 -0.193281 62.809000
H 27.879000 0.519719 63.111000
O 34.117000 38.982281 57.707000
H 33.644000 38.761281 58.510000
H 34.862000 38.382281 57.695000
O -3.382000 33.086281 50.705000
H -3.220000 33.974281 51.025000
H -2.534000 32.794281 50.371000
O 33.571000 28.781281 39.864000
H 32.746000 28.296281 39.884000
H 33.855000 28.808281 40.778000
O 30.781000 34.644281 61.414000
H 29.922000 34.221281 61.418000
H 31.317000 34.093281 60.844000
O -13.091000 41.397281 60.684000
H -13.075000 40.455281 60.856000
H -12.383000 41.538281 60.056000
O -6.023000 28.190281 53.627000
H -5.536000 28.210281 52.803000
H -6.878000 27.831281 53.391000
O -4.952000 29.601281 59.358000
H -4.344000 29.369281 60.060000
H -4.895000 28.872281 58.741000
O -1.291000 43.943281 56.667000
H -2.085000 44.074281 56.150000
H -1.385000 43.062281 57.031000
O -6.393000 41.243281 61.636000
H -6.534000 41.379281 60.699000
H -6.777000 42.016281 62.051000
O -13.675000 37.006281 54.314000
H -13.050000 36.281281 54.340000
H -14.349000 36.720281 53.698000
O 30.571000 45.464281 58.996000
H 31.488000 45.308281 59.221000
H 30.482000 45.127281 58.105000
O -7.192000 46.535281 51.132000
H -8.108000 46.500281 50.859000
H -6.755000 47.039281 50.445000
O -8.897000 47.773281 61.822000
H -8.405000 48.545281 62.102000
H -9.222000 48.000281 60.951000
O -2.149000 39.359281 62.178000
H -2.562000 38.536281 62.439000
H -1.723000 39.160281 61.344000
O -10.139000 36.414281 56.000000
H -10.745000 35.714281 55.759000
H -10.515000 36.793281 56.795000
O -10.012000 30.976281 54.172000
H -9.805000 30.743281 55.077000
H -9.166000 31.197281 53.782000
O -3.679000 41.741281 61.842000
H -3.267000 40.903281 62.052000
H -4.618000 41.562281 61.874000
O -3.449000 30.745281 57.272000
H -3.914000 31.442281 56.811000
H -4.000000 30.548281 58.030000
O -9.026000 30.025281 56.619000
H -9.361000 29.295281 57.141000
H -9.074000 30.781281 57.205000
O -15.253000 33.778281 52.776000
H -14.584000 33.634281 52.108000
H -15.386000 34.726281 52.781000
O -2.583000 29.589281 60.877000
H -2.249000 29.530281 61.772000
H -2.126000 28.894281 60.404000
O 36.179000 37.230281 58.682000
H 36.083000 36.704281 59.476000
H 35.701000 36.742281 58.012000
O -3.867000 39.878281 59.371000
H -3.884000 40.555281 60.047000
H -3.994000 39.058281 59.848000
O 33.562000 44.252281 62.085000
H 33.056000 44.740281 62.735000
H 34.389000 44.054281 62.524000
O -4.370000 33.604281 53.599000
H -3.440000 33.644281 53.818000
H -4.796000 33.322281 54.408000
O -5.633000 34.691281 36.347000
H -4.720000 34.645281 36.629000
H -5.993000 35.442281 36.819000
O -6.670000 29.324281 61.923000
H -6.377000 28.961281 61.087000
H -6.671000 28.577281 62.522000
O -5.809000 35.707281 57.155000
H -4.978000 35.665281 57.629000
H -5.572000 36.020281 56.282000
O 19.351000 2.812719 56.653000
H 18.524000 2.743719 57.129000
H 19.095000 2.847719 55.731000
O -7.433000 33.745281 54.214000
H -6.930000 34.465281 53.835000
H -7.924000 34.146281 54.931000
O -8.580000 37.846281 60.136000
H -8.213000 38.241281 60.927000
H -8.050000 38.201281 59.422000
O -10.803000 37.546281 58.342000
H -11.312000 36.862281 58.778000
H -9.994000 37.604281 58.851000
O -10.874000 40.860281 35.845000
H -10.729000 40.526281 34.960000
H -10.191000 40.446281 36.373000
O -2.914000 36.335281 58.215000
H -2.361000 36.802281 58.842000
H -2.775000 35.409281 58.416000
O -2.394000 36.716281 63.673000
H -3.046000 37.326281 64.018000
H -1.684000 36.735281 64.315000
O -8.462000 35.332281 61.182000
H -8.615000 36.125281 60.668000
H -8.113000 35.649281 62.014000
O 30.559000 32.274281 63.477000
H 29.627000 32.432281 63.627000
H 30.701000 32.524281 62.564000
O 36.678000 33.086281 51.196000
H 36.814000 32.633281 50.364000
H 35.908000 33.635281 51.047000
O -4.728000 37.767281 60.841000
H -5.424000 37.769281 60.183000
H -4.472000 36.848281 60.916000
O -9.219000 35.186281 35.287000
H -9.799000 34.805281 34.627000
H -9.513000 34.804281 36.114000
O -8.384000 34.429281 56.711000
H -8.921000 35.174281 56.441000
H -7.623000 34.823281 57.137000
O -9.847000 38.991281 55.100000
H -9.156000 39.094281 54.446000
H -9.712000 38.113281 55.455000
O -11.932000 46.676281 59.554000
H -12.431000 47.491281 59.605000
H -12.219000 46.269281 58.737000
O -9.346000 41.229281 59.905000
H -8.474000 41.505281 59.623000
H -9.611000 41.889281 60.546000
O 43.147000 30.195281 38.408000
H 43.721000 30.865281 38.037000
H 42.262000 30.524281 38.252000
O -7.333000 36.324281 63.328000
H -7.802000 36.195281 64.152000
H -6.640000 35.663281 63.340000
O -9.082000 30.922281 62.443000
H -8.240000 30.639281 62.087000
H -9.418000 31.544281 61.797000
O 37.392000 40.114281 37.527000
H 37.674000 39.979281 36.622000
H 36.444000 40.235281 37.468000
O 34.241000 33.958281 58.462000
H 34.166000 33.284281 57.786000
H 35.052000 33.745281 58.924000
O -12.981000 42.252281 37.009000
H -13.751000 42.020281 36.491000
H -12.257000 41.798281 36.578000
O 0.159000 1.831719 60.117000
H 0.849000 1.881719 60.779000
H -0.076000 2.742719 59.946000
O 30.560000 42.096281 53.208000
H 30.991000 42.660281 52.566000
H 30.426000 41.267281 52.749000
O -4.301000 38.223281 50.236000
H -4.567000 39.067281 49.872000
H -4.179000 38.391281 51.170000
O -16.417000 33.568281 63.642000
H -16.270000 33.861281 64.541000
H -15.601000 33.133281 63.395000
O 33.759000 41.687281 60.364000
H 33.317000 41.993281 61.156000
H 33.259000 40.918281 60.092000
O -4.179000 34.241281 59.167000
H -4.436000 34.834281 59.872000
H -4.867000 33.576281 59.150000
O 37.712000 39.735281 59.565000
H 37.122000 40.475281 59.421000
H 37.249000 38.984281 59.195000
O -5.329000 31.013281 36.278000
H -4.850000 31.384281 37.020000
H -6.078000 31.597281 36.161000
O -7.919000 44.712281 58.935000
H -7.401000 45.450281 58.614000
H -8.571000 45.110281 59.513000
O -6.475000 38.707281 58.676000
H -5.685000 39.226281 58.831000
H -6.551000 38.664281 57.723000
O -16.239000 33.827281 55.304000
H -16.173000 32.961281 55.706000
H -15.633000 33.794281 54.564000
O -14.998000 31.669281 58.047000
H -14.822000 30.960281 58.666000
H -15.440000 31.242281 57.313000
O -3.302000 43.408281 54.462000
H -3.927000 42.684281 54.510000
H -2.519000 43.024281 54.067000
O 33.911000 28.115281 64.941000
H 34.467000 27.543281 64.413000
H 33.424000 28.634281 64.302000
O -6.060000 32.278281 59.153000
H -5.826000 31.352281 59.091000
H -6.890000 32.348281 58.681000
O -3.070000 46.309281 54.109000
H -3.008000 46.381281 53.157000
H -3.296000 45.393281 54.267000
O -4.202000 46.953281 61.873000
H -4.391000 47.624281 61.218000
H -4.684000 46.182281 61.574000
O 32.558000 39.148281 59.933000
H 33.018000 38.885281 60.730000
H 31.961000 38.422281 59.750000
O 32.450000 32.605281 60.093000
H 31.849000 32.184281 59.479000
H 33.037000 33.120281 59.540000
O -11.433000 39.175281 60.983000
H -10.555000 39.438281 60.707000
H -11.554000 38.306281 60.600000
O -8.677000 32.260281 58.306000
H -8.750000 33.028281 57.739000
H -9.055000 32.540281 59.139000
O -5.208000 44.728281 60.527000
H -4.377000 44.320281 60.282000
H -5.699000 44.783281 59.707000
O -2.706000 40.031281 56.294000
H -2.874000 39.853281 57.220000
H -2.005000 39.423281 56.057000
O 0.661000 3.508719 63.502000
H 0.581000 2.976719 64.293000
H 1.334000 3.067719 62.983000
O -2.530000 32.281281 60.646000
H -3.451000 32.439281 60.437000
H -2.447000 31.327281 60.660000
O -17.754000 39.211281 56.837000
H -18.058000 39.976281 56.348000
H -16.874000 39.043281 56.499000
O -5.141000 48.164281 54.517000
H -4.643000 48.756281 53.953000
H -4.611000 47.368281 54.557000
O -14.865000 52.538281 35.501000
H -14.541000 53.142281 34.833000
H -14.663000 52.967281 36.331000
O -13.604000 47.940281 47.800000
H -13.902000 47.156281 48.259000
H -12.942000 47.622281 47.186000
O -10.911000 49.079281 43.203000
H -10.026000 48.999281 42.846000
H -10.902000 49.907281 43.683000
O -7.104000 28.936281 49.117000
H -7.705000 28.524281 48.497000
H -7.605000 29.002281 49.930000
O 0.714000 1.601719 54.887000
H 0.878000 1.578719 55.830000
H 1.018000 2.466719 54.612000
O 18.580000 0.648719 39.025000
H 17.785000 0.691719 38.493000
H 18.362000 1.132719 39.822000
O -6.522000 51.016281 52.148000
H -5.922000 50.850281 52.875000
H -7.181000 50.326281 52.219000
O 23.421000 2.359719 46.794000
H 22.713000 2.698719 46.245000
H 23.780000 1.625719 46.297000
O -4.187000 50.939281 39.874000
H -3.732000 50.235281 40.337000
H -4.588000 51.462281 40.568000
O -14.378000 51.223281 38.946000
H -14.839000 51.583281 38.188000
H -13.514000 50.985281 38.612000
O 19.800000 1.987719 51.834000
H 19.171000 1.312719 51.577000
H 20.591000 1.501719 52.068000
O -2.134000 48.413281 58.525000
H -1.562000 48.747281 57.833000
H -1.665000 47.658281 58.880000
O 15.956000 2.633719 47.586000
H 15.014000 2.755719 47.474000
H 16.345000 3.438719 47.244000
O -9.806000 52.184281 56.661000
H -9.625000 53.124281 56.653000
H -10.676000 52.111281 57.052000
O 21.183000 1.293719 38.919000
H 21.450000 1.948719 38.274000
H 20.244000 1.181719 38.772000
O -1.741000 43.012281 42.575000
H -1.154000 42.829281 41.842000
H -2.392000 43.616281 42.217000
O -2.037000 42.499281 47.072000
H -1.712000 42.766281 46.212000
H -2.877000 42.078281 46.891000
O -7.911000 49.583281 44.823000
H -7.046000 49.969281 44.683000
H -7.886000 49.260281 45.724000
O -5.178000 46.784281 47.347000
H -5.704000 46.160281 46.847000
H -4.356000 46.848281 46.861000
O 24.690000 1.484719 39.273000
H 24.942000 1.924719 38.461000
H 24.101000 0.783719 38.994000
O 18.792000 1.782719 43.661000
H 19.549000 1.788719 43.076000
H 19.080000 1.277719 44.421000
O -4.615000 45.837281 36.189000
H -5.254000 46.542281 36.292000
H -5.081000 45.160281 35.698000
O -8.507000 48.629281 42.103000
H -8.247000 49.053281 42.922000
H -7.858000 47.938281 41.975000
O 19.703000 3.228719 35.301000
H 20.256000 3.797719 34.764000
H 20.316000 2.776719 35.881000
O -9.618000 51.052281 53.598000
H -9.442000 50.326281 52.999000
H -8.941000 50.978281 54.270000
O -7.085000 51.237281 42.092000
H -6.589000 51.951281 41.691000
H -7.523000 50.807281 41.358000
O -6.632000 46.934281 58.199000
H -5.915000 47.406281 58.623000
H -7.066000 47.592281 57.657000
O 31.321000 48.729281 56.720000
H 31.249000 48.393281 55.826000
H 32.092000 48.290281 57.079000
O -3.670000 30.160281 43.551000
H -2.993000 30.027281 44.215000
H -4.425000 29.669281 43.877000
O -5.200000 49.413281 42.673000
H -5.937000 49.934281 42.355000
H -4.894000 49.879281 43.451000
O -9.929000 43.118281 61.768000
H -9.114000 43.018281 62.259000
H -9.865000 43.988281 61.372000
O -1.555000 50.171281 63.765000
H -1.592000 49.749281 62.907000
H -2.448000 50.105281 64.103000
O 26.380000 1.308719 35.897000
H 26.556000 0.760719 35.132000
H 26.955000 0.960719 36.579000
O 21.734000 1.098719 49.068000
H 21.989000 0.182719 49.182000
H 22.289000 1.415719 48.356000
O -13.967000 52.437281 44.977000
H -13.231000 53.047281 45.030000
H -14.316000 52.403281 45.867000
O -7.320000 43.766281 62.649000
H -7.086000 44.030281 63.539000
H -6.802000 44.341281 62.085000
O -5.239000 43.562281 39.903000
H -4.694000 44.291281 39.608000
H -5.074000 43.503281 40.844000
O -10.764000 50.434281 64.319000
H -10.320000 49.769281 64.845000
H -11.696000 50.289281 64.485000
O 31.035000 43.070281 44.990000
H 30.532000 43.102281 44.176000
H 31.737000 43.708281 44.863000
O 25.581000 0.430719 52.096000
H 24.886000 1.002719 51.769000
H 25.324000 -0.446281 51.813000
O 60.867000 0.037719 41.581000
H 60.960000 0.350719 40.681000
H 61.525000 -0.652281 41.664000
O -7.736000 50.439281 39.583000
H -8.515000 49.975281 39.277000
H -7.708000 51.236281 39.053000
O 23.717000 1.310719 54.988000
H 23.135000 1.671719 55.656000
H 24.515000 1.835719 55.055000
O 31.057000 47.269281 54.457000
H 30.233000 46.785281 54.510000
H 31.155000 47.476281 53.528000
O -3.883000 49.490281 50.048000
H -3.982000 49.607281 50.993000
H -4.731000 49.154281 49.757000
O -1.533000 28.176281 49.454000
H -1.947000 27.421281 49.035000
H -1.881000 28.933281 48.984000
O 30.330000 53.161281 63.373000
H 30.334000 52.211281 63.255000
H 30.933000 53.488281 62.705000
O -9.711000 50.278281 49.092000
H -10.452000 49.921281 49.583000
H -9.155000 50.683281 49.758000
O 43.463000 27.286281 49.372000
H 42.617000 27.098281 49.781000
H 43.612000 26.548281 48.781000
O -9.792000 46.925281 39.937000
H -9.548000 47.536281 40.633000
H -9.723000 46.060281 40.341000
O -7.005000 45.324281 38.928000
H -7.050000 45.922281 39.674000
H -6.554000 44.551281 39.267000
O -10.020000 51.244281 45.008000
H -9.515000 51.941281 44.591000
H -9.391000 50.534281 45.136000
O -13.279000 29.160281 56.933000
H -12.410000 28.983281 57.292000
H -13.129000 29.296281 55.997000
O 3.112000 0.639719 34.988000
H 3.952000 0.996719 35.275000
H 2.643000 0.446719 35.800000
O 18.809000 0.679719 46.263000
H 19.114000 -0.197281 46.494000
H 18.834000 1.166719 47.086000
O -9.900000 49.117281 38.431000
H -10.324000 48.370281 38.853000
H -10.592000 49.774281 38.354000
O -4.015000 52.292281 54.391000
H -4.102000 52.804281 53.587000
H -3.071000 52.186281 54.507000
O -29.173000 52.381281 49.038000
H -28.298000 52.765281 49.094000
H -29.431000 52.504281 48.124000
O -2.753000 47.075281 51.272000
H -3.120000 47.693281 50.639000
H -1.895000 47.440281 51.492000
O -5.178000 51.412281 48.271000
H -4.737000 52.254281 48.161000
H -4.471000 50.767281 48.262000
O -13.279000 46.271281 43.989000
H -12.788000 46.334281 44.809000
H -13.120000 47.107281 43.550000
O 17.854000 0.494719 51.102000
H 17.277000 1.096719 50.632000
H 17.283000 0.060719 51.736000
O -6.378000 43.827281 35.125000
H -7.084000 43.746281 35.767000
H -5.815000 43.071281 35.292000
O -7.583000 52.046281 49.769000
H -6.886000 51.841281 49.146000
H -7.176000 51.938281 50.628000
O -11.715000 47.927281 62.832000
H -11.748000 48.291281 63.716000
H -10.871000 48.217281 62.485000
O 13.234000 2.654719 46.867000
H 12.845000 3.492719 46.618000
H 13.513000 2.263719 46.038000
O 28.842000 1.719719 43.540000
H 27.885000 1.729719 43.568000
H 29.056000 1.063719 42.877000
O 33.140000 27.312281 37.441000
H 33.360000 27.475281 36.524000
H 33.540000 28.040281 37.917000
O 30.730000 41.736281 36.192000
H 30.617000 40.788281 36.268000
H 30.022000 42.016281 35.612000
O -4.943000 27.017281 35.505000
H -4.158000 27.489281 35.782000
H -4.678000 26.097281 35.495000
O -11.629000 51.222281 38.207000
H -11.601000 51.538281 37.304000
H -11.581000 52.016281 38.740000
O -6.076000 30.179281 55.660000
H -5.779000 29.753281 54.856000
H -7.030000 30.197281 55.583000
O -5.330000 53.155281 41.330000
H -5.366000 53.717281 40.556000
H -5.002000 53.726281 42.025000
O 24.042000 2.136719 50.375000
H 23.290000 1.771719 49.910000
H 24.551000 2.580719 49.697000
O -4.879000 41.476281 42.328000
H -3.993000 41.141281 42.187000
H -4.751000 42.378281 42.620000
O -11.317000 32.262281 52.305000
H -10.850000 31.809281 53.007000
H -10.639000 32.474281 51.664000
O -6.302000 48.194281 49.278000
H -7.090000 48.455281 48.803000
H -5.855000 47.588281 48.688000
O -9.418000 46.025281 64.123000
H -9.364000 46.528281 63.311000
H -10.200000 45.482281 64.018000
O -9.135000 31.966281 38.103000
H -8.590000 32.282281 37.382000
H -9.543000 31.169281 37.765000
O -5.365000 51.099281 45.588000
H -4.432000 50.971281 45.419000
H -5.427000 51.186281 46.539000
O 30.729000 50.598281 51.629000
H 31.404000 51.073281 52.113000
H 30.511000 51.173281 50.895000
O -3.750000 46.604281 40.527000
H -3.478000 46.240281 39.684000
H -4.563000 47.072281 40.335000
O 24.419000 0.438719 45.163000
H 24.593000 -0.470281 45.406000
H 23.693000 0.386719 44.541000
O -11.983000 27.312281 45.137000
H -12.175000 26.422281 44.841000
H -12.611000 27.471281 45.841000
O -3.210000 52.831281 37.643000
H -3.766000 52.236281 38.145000
H -2.574000 52.259281 37.213000
O 16.075000 1.600719 42.905000
H 15.824000 0.745719 42.556000
H 16.975000 1.481719 43.208000
O -4.034000 49.577281 64.433000
H -4.310000 49.624281 65.349000
H -4.057000 48.644281 64.223000
O 27.657000 2.618719 51.640000
H 27.195000 3.452719 51.718000
H 27.008000 1.960719 51.890000
O -4.311000 44.192281 42.318000
H -4.656000 44.648281 43.085000
H -3.793000 44.853281 41.858000
O -8.475000 27.223281 42.297000
H -8.788000 27.315281 43.197000
H -8.742000 28.035281 41.866000
O 30.221000 49.812281 39.349000
H 30.863000 49.155281 39.081000
H 29.647000 49.351281 39.962000
O 22.000000 1.759719 56.962000
H 21.272000 2.376719 56.885000
H 22.400000 1.964719 57.807000
O -14.135000 52.674281 53.276000
H -13.528000 51.951281 53.433000
H -14.979000 52.250281 53.121000
O -13.388000 45.990281 62.020000
H -12.883000 46.636281 62.515000
H -12.744000 45.567281 61.452000
O -11.594000 51.111281 61.044000
H -11.440000 50.739281 61.912000
H -12.118000 50.451281 60.589000
O -6.227000 28.686281 37.167000
H -5.885000 29.421281 36.658000
H -5.980000 27.910281 36.663000
O 21.033000 2.698719 61.371000
H 20.454000 3.398719 61.672000
H 20.707000 2.475719 60.499000
O 44.619000 27.508281 38.019000
H 43.973000 28.213281 38.065000
H 44.984000 27.575281 37.136000
O -5.637000 28.029281 57.180000
H -5.474000 27.342281 56.534000
H -5.613000 28.842281 56.677000
O -13.561000 26.741281 36.546000
H -14.219000 27.176281 36.003000
H -12.852000 26.529281 35.939000
O -1.449000 49.921281 60.984000
H -1.214000 49.019281 60.766000
H -1.878000 50.254281 60.195000
O -1.334000 28.977281 56.296000
H -2.101000 29.301281 56.769000
H -1.576000 28.093281 56.023000
O -2.622000 42.562281 64.371000
H -3.307000 42.333281 64.999000
H -2.998000 42.348281 63.517000
O -5.242000 51.373281 62.217000
H -5.073000 51.208281 61.289000
H -4.690000 50.740281 62.677000
O 23.278000 1.281719 62.431000
H 22.595000 1.740719 61.942000
H 23.237000 0.380719 62.112000
O -27.912000 51.103281 54.267000
H -28.091000 51.669281 53.515000
H -28.372000 51.521281 54.995000
O -8.679000 52.176281 61.042000
H -9.626000 52.216281 60.911000
H -8.339000 51.816281 60.223000
O 18.001000 0.506719 61.049000
H 18.418000 0.782719 61.865000
H 18.290000 -0.397281 60.925000
O -12.515000 51.341281 56.801000
H -12.254000 51.057281 55.925000
H -13.210000 51.981281 56.648000
O -3.414000 50.203281 53.133000
H -2.604000 50.512281 52.729000
H -3.681000 50.916281 53.713000
O -3.585000 32.275281 64.007000
H -4.092000 32.354281 63.200000
H -3.996000 31.550281 64.479000
O -8.048000 51.025281 58.602000
H -7.540000 50.354281 58.147000
H -8.384000 51.587281 57.903000
O -7.292000 49.063281 56.286000
H -6.606000 48.695281 55.729000
H -7.289000 49.999281 56.084000
O -9.071000 47.345281 54.505000
H -9.171000 47.707281 55.385000
H -9.323000 46.426281 54.593000
O -3.038000 43.281281 59.752000
H -3.158000 42.701281 60.504000
H -2.182000 43.686281 59.896000
O 22.203000 3.470719 52.867000
H 21.249000 3.402719 52.890000
H 22.509000 2.563719 52.851000
O -4.638000 48.013281 59.497000
H -4.951000 48.916281 59.446000
H -3.798000 48.024281 59.038000
O 33.681000 47.795281 57.581000
H 33.450000 46.935281 57.229000
H 33.993000 47.615281 58.467000
O -6.705000 51.832281 55.456000
H -5.936000 51.815281 54.886000
H -7.021000 52.735281 55.407000
O 23.734000 0.982719 35.452000
H 24.547000 1.329719 35.821000
H 23.971000 0.707719 34.566000
O 21.893000 2.506719 36.656000
H 22.513000 1.959719 36.173000
H 22.095000 3.400719 36.380000
O -11.990000 27.247281 38.824000
H -12.345000 27.024281 37.963000
H -12.697000 27.042281 39.436000
O 25.816000 2.941719 55.181000
H 26.726000 2.734719 55.396000
H 25.877000 3.641719 54.532000
O -7.657000 50.379281 62.798000
H -8.352000 50.687281 62.217000
H -6.877000 50.852281 62.511000
O -6.690000 27.062281 63.426000
H -5.962000 26.957281 64.039000
H -7.070000 26.186281 63.354000
O -9.791000 41.567281 55.083000
H -9.752000 40.610281 55.097000
H -10.538000 41.768281 54.518000
O -29.252000 51.535281 61.018000
H -30.030000 50.994281 60.884000
H -28.989000 51.799281 60.136000
O 32.097000 49.660281 48.478000
H 32.542000 50.461281 48.753000
H 31.700000 49.319281 49.279000
O 19.411000 1.449719 63.290000
H 19.477000 2.101719 63.988000
H 20.165000 1.624719 62.727000
O -5.154000 49.802281 37.000000
H -5.027000 50.052281 37.915000
H -5.910000 50.313281 36.713000
O -10.619000 52.493281 35.716000
H -10.281000 53.287281 35.303000
H -10.564000 51.825281 35.033000
O 23.936000 1.961719 59.545000
H 24.469000 1.267719 59.158000
H 24.265000 2.045719 60.440000
O 18.312000 3.195719 54.041000
H 17.370000 3.343719 53.960000
H 18.519000 2.581719 53.336000
O 1.488000 1.678719 57.382000
H 2.420000 1.618719 57.593000
H 1.055000 1.769719 58.231000
O -9.808000 45.461281 60.755000
H -9.233000 46.131281 61.125000
H -10.584000 45.942281 60.467000
O -25.801000 50.870281 58.457000
H -25.804000 50.438281 59.311000
H -25.455000 50.211281 57.856000
O -12.617000 49.408281 59.120000
H -11.684000 49.194281 59.086000
H -12.742000 50.046281 58.418000
O 26.790000 2.562719 61.069000
H 26.590000 3.370719 61.542000
H 26.771000 1.880719 61.741000
O -7.777000 27.623281 58.621000
H -7.045000 28.019281 58.148000
H -7.391000 26.874281 59.076000
O -10.893000 48.964281 51.042000
H -10.819000 48.627281 51.935000
H -11.779000 49.322281 50.993000
O -12.331000 50.770281 54.020000
H -12.156000 49.831281 54.089000
H -11.514000 51.143281 53.690000
O 32.602000 27.477281 54.411000
H 33.533000 27.462281 54.189000
H 32.166000 27.731281 53.598000
O 30.963000 51.544281 57.073000
H 30.915000 50.590281 57.121000
H 31.757000 51.769281 57.558000
O -7.577000 52.799281 37.970000
H -7.702000 52.652281 37.032000
H -8.433000 53.090281 38.283000
O 28.419000 3.158719 56.028000
H 28.200000 2.814719 56.894000
H 29.090000 2.562719 55.696000
O 27.643000 0.413719 47.828000
H 27.627000 1.362719 47.948000
H 28.156000 0.281719 47.030000
O 39.245000 28.400281 38.364000
H 39.913000 28.183281 37.713000
H 39.670000 28.237281 39.207000
O 25.113000 0.053719 58.098000
H 24.634000 0.146719 57.274000
H 26.017000 0.278719 57.876000
O 30.418000 34.124281 56.567000
H 30.479000 33.302281 57.054000
H 30.112000 33.866281 55.698000
O -24.033000 44.349281 57.945000
H -23.516000 43.709281 58.435000
H -24.884000 43.928281 57.825000
O -2.441000 51.784281 59.327000
H -2.298000 51.858281 58.384000
H -2.033000 52.569281 59.694000
O 17.584000 3.043719 60.398000
H 17.426000 2.871719 59.470000
H 17.690000 2.176719 60.788000
O -10.558000 30.057281 66.378000
H -9.815000 29.530281 66.083000
H -10.600000 30.782281 65.755000
O 37.738000 35.108281 16.717000
H 38.469000 35.215281 17.326000
H 37.433000 35.999281 16.550000
O 35.099000 43.607281 14.750000
H 35.483000 43.541281 15.624000
H 34.415000 42.938281 14.737000
O 33.715000 31.468281 12.413000
H 32.780000 31.555281 12.228000
H 34.121000 31.359281 11.553000
O -17.967000 43.706281 13.627000
H -17.932000 42.962281 14.229000
H -18.856000 43.686281 13.272000
O -24.813000 51.013281 10.256000
H -24.257000 51.679281 10.659000
H -25.674000 51.425281 10.192000
O -21.069000 41.740281 24.463000
H -21.807000 41.206281 24.756000
H -20.392000 41.598281 25.125000
O 10.259000 3.060719 10.109000
H 9.884000 3.582719 10.818000
H 10.420000 2.202719 10.502000
O -9.486000 48.721281 65.831000
H -9.469000 47.764281 65.814000
H -9.598000 48.943281 66.755000
O 33.952000 34.334281 11.311000
H 33.815000 33.411281 11.523000
H 34.204000 34.737281 12.143000
O -15.598000 36.818281 12.434000
H -15.230000 37.658281 12.161000
H -16.469000 37.035281 12.767000
O -16.091000 35.063281 66.006000
H -15.508000 35.512281 66.618000
H -16.772000 35.706281 65.806000
O -20.312000 41.399281 10.685000
H -20.476000 41.653281 9.776000
H -21.174000 41.166281 11.028000
O -4.933000 32.776281 16.177000
H -5.332000 33.351281 16.830000
H -5.549000 32.049281 16.090000
O -6.471000 47.634281 66.223000
H -6.860000 47.546281 67.093000
H -6.262000 48.565281 66.146000
O 37.595000 35.018281 66.578000
H 38.391000 35.086281 66.050000
H 37.195000 34.193281 66.303000
O -23.423000 41.706281 13.002000
H -23.742000 40.938281 13.477000
H -23.675000 42.449281 13.550000
O 40.334000 32.208281 8.759000
H 40.665000 32.026281 9.639000
H 40.700000 33.064281 8.537000
O -18.518000 36.439281 65.679000
H -18.770000 35.607281 66.080000
H -19.272000 37.011281 65.821000
O 31.567000 38.037281 12.947000
H 31.455000 38.684281 12.251000
H 31.750000 38.557281 13.730000
O -13.512000 33.790281 10.503000
H -12.793000 33.361281 10.040000
H -14.071000 34.139281 9.808000
O -18.895000 44.581281 24.247000
H -18.601000 45.202281 24.913000
H -19.817000 44.796281 24.108000
O 36.180000 37.610281 11.885000
H 35.761000 36.896281 12.368000
H 35.497000 38.276281 11.802000
O 31.010000 31.721281 12.422000
H 30.814000 32.036281 11.540000
H 30.631000 30.842281 12.453000
O -14.944000 45.362281 66.571000
H -14.164000 45.259281 67.116000
H -14.714000 44.943281 65.741000
O -14.769000 30.255281 13.369000
H -13.876000 30.178281 13.707000
H -14.660000 30.362281 12.425000
O -0.175000 3.341719 67.652000
H 0.717000 3.684719 67.604000
H -0.274000 2.815719 66.859000
O 39.095000 29.959281 11.933000
H 38.797000 29.662281 11.073000
H 39.826000 30.547281 11.743000
O -20.636000 38.164281 65.498000
H -21.180000 37.410281 65.729000
H -20.707000 38.751281 66.250000
O -18.933000 35.829281 12.147000
H -19.686000 36.153281 11.652000
H -18.614000 36.594281 12.626000
O 41.679000 29.321281 23.526000
H 41.960000 28.554281 24.025000
H 42.319000 29.997281 23.745000
O -16.733000 37.938281 67.408000
H -17.425000 37.346281 67.114000
H -15.926000 37.434281 67.303000
O 35.799000 35.714281 20.969000
H 35.063000 35.431281 21.511000
H 36.498000 35.904281 21.594000
O -6.792000 41.364281 12.911000
H -7.018000 41.844281 13.707000
H -5.866000 41.145281 13.017000
O -17.480000 46.689281 11.935000
H -17.711000 46.813281 12.856000
H -16.624000 47.108281 11.844000
O -18.216000 40.500281 13.207000
H -19.142000 40.529281 12.969000
H -17.771000 40.210281 12.410000
O 33.498000 37.890281 15.027000
H 33.662000 38.540281 14.344000
H 33.831000 38.294281 15.828000
O -18.057000 36.901281 9.451000
H -18.050000 37.743281 9.906000
H -17.369000 36.391281 9.878000
O 33.615000 46.055281 8.928000
H 32.945000 46.270281 8.278000
H 33.495000 45.120281 9.096000
O -17.912000 37.802281 13.581000
H -18.414000 37.469281 14.325000
H -18.067000 38.747281 13.590000
O -15.194000 27.522281 13.802000
H -16.069000 27.237281 13.537000
H -15.095000 28.388281 13.408000
O 2.219000 3.035719 9.919000
H 2.048000 2.620719 9.073000
H 1.514000 2.723719 10.486000
O 32.581000 40.903281 8.784000
H 32.938000 40.541281 7.973000
H 31.670000 40.608281 8.799000
O 31.328000 35.475281 11.965000
H 32.177000 35.262281 11.579000
H 31.419000 36.380281 12.262000
O -11.998000 41.185281 12.922000
H -11.424000 41.490281 12.219000
H -11.839000 40.243281 12.971000
O -23.931000 44.353281 13.947000
H -23.693000 44.689281 13.083000
H -24.888000 44.331281 13.942000
O -10.856000 42.483281 10.481000
H -11.114000 43.242281 11.005000
H -9.903000 42.450281 10.559000
O -21.038000 40.420281 13.632000
H -21.820000 40.967281 13.557000
H -21.362000 39.583281 13.965000
O 13.582000 2.040719 24.211000
H 13.470000 2.236719 23.281000
H 14.460000 2.361719 24.420000
O -14.193000 36.631281 22.735000
H -13.749000 37.107281 23.437000
H -15.099000 36.553281 23.033000
O 30.924000 32.247281 9.692000
H 31.313000 32.695281 8.941000
H 30.540000 31.451281 9.325000
O 35.196000 29.689281 18.084000
H 34.827000 30.532281 17.821000
H 35.553000 29.321281 17.275000
O -15.788000 34.434281 9.015000
H -16.437000 33.743281 9.154000
H -15.763000 34.552281 8.066000
O 40.843000 31.851281 11.508000
H 40.808000 32.758281 11.811000
H 41.778000 31.657281 11.437000
O -2.939000 46.783281 24.436000
H -3.106000 46.146281 23.741000
H -3.492000 46.495281 25.163000
O 34.878000 35.509281 13.603000
H 35.141000 34.889281 14.283000
H 34.482000 36.237281 14.081000
O -17.902000 39.354281 19.498000
H -18.706000 38.839281 19.567000
H -17.631000 39.255281 18.586000
O -11.803000 32.533281 8.952000
H -12.123000 31.785281 9.457000
H -10.849000 32.459281 8.994000
O -1.420000 41.526281 18.172000
H -1.845000 41.075281 17.442000
H -2.130000 41.708281 18.788000
O -25.423000 48.926281 12.162000
H -25.268000 49.774281 11.747000
H -25.154000 49.051281 13.072000
O 34.069000 34.108281 65.276000
H 33.616000 33.267281 65.214000
H 33.468000 34.669281 65.766000
O -12.488000 44.847281 67.645000
H -12.645000 43.964281 67.312000
H -11.620000 45.078281 67.316000
O -1.572000 39.906281 11.771000
H -2.369000 39.420281 11.984000
H -1.654000 40.102281 10.837000
O 16.560000 0.966719 23.655000
H 16.247000 0.805719 22.765000
H 17.502000 1.103719 23.558000
O 38.359000 39.940281 8.996000
H 37.776000 39.857281 8.241000
H 38.406000 39.057281 9.362000
O -19.510000 41.462281 66.617000
H -19.805000 42.352281 66.813000
H -18.714000 41.582281 66.099000
O -18.533000 46.594281 66.092000
H -19.007000 47.274281 65.614000
H -17.813000 47.059281 66.519000
O -17.386000 42.178281 25.120000
H -17.662000 43.061281 24.877000
H -17.403000 41.686281 24.299000
O 34.743000 41.217281 67.527000
H 34.711000 41.945281 68.148000
H 34.846000 41.636281 66.672000
O 33.116000 43.406281 9.164000
H 34.036000 43.153281 9.089000
H 32.630000 42.620281 8.913000
O -21.337000 37.848281 14.050000
H -20.485000 37.570281 14.389000
H -21.972000 37.466281 14.657000
O 35.202000 29.753281 14.949000
H 35.637000 30.262281 14.265000
H 34.433000 30.272281 15.183000
O -15.975000 42.834281 11.914000
H -16.846000 42.751281 12.303000
H -15.407000 42.317281 12.486000
O 42.233000 27.026281 24.692000
H 43.133000 26.702281 24.709000
H 41.694000 26.236281 24.643000
O -16.689000 29.623281 9.506000
H -17.144000 28.789281 9.386000
H -17.117000 30.024281 10.262000
O -12.591000 41.311281 8.653000
H -11.932000 41.750281 9.192000
H -12.270000 40.414281 8.565000
O -16.781000 40.026281 23.085000
H -17.327000 40.270281 22.338000
H -16.002000 40.576281 23.002000
O -20.056000 43.773281 12.119000
H -19.887000 42.902281 11.759000
H -19.711000 44.376281 11.461000
O 38.138000 37.316281 9.816000
H 37.435000 37.148281 10.443000
H 38.942000 37.219281 10.326000
O -23.715000 42.415281 10.456000
H -23.630000 42.078281 11.348000
H -23.669000 41.637281 9.900000
O -8.320000 42.418281 10.722000
H -7.732000 42.000281 11.352000
H -7.803000 43.131281 10.347000
O 40.140000 36.500281 11.429000
H 40.119000 37.106281 12.170000
H 39.803000 35.676281 11.783000
O 6.739000 1.972719 10.955000
H 6.957000 1.314719 11.615000
H 5.963000 2.412719 11.301000
O 14.157000 2.660719 21.648000
H 14.258000 1.709719 21.667000
H 15.041000 2.993719 21.495000
O 40.061000 31.494281 24.232000
H 40.666000 30.769281 24.074000
H 39.458000 31.163281 24.898000
O 19.141000 1.766719 8.630000
H 18.624000 1.299719 9.287000
H 20.048000 1.545719 8.838000
O 32.419000 35.644281 67.280000
H 32.269000 35.075281 68.035000
H 33.098000 36.253281 67.569000
O -15.405000 42.664281 19.400000
H -14.533000 42.513281 19.764000
H -15.988000 42.650281 20.159000
O -11.584000 34.265281 23.445000
H -11.296000 34.666281 22.625000
H -12.511000 34.496281 23.512000
O 43.295000 31.344281 24.238000
H 43.906000 32.007281 23.917000
H 42.732000 31.814281 24.853000
O -11.541000 38.210281 13.139000
H -12.315000 37.863281 13.583000
H -10.893000 38.316281 13.836000
O 37.913000 36.272281 22.445000
H 38.248000 35.453281 22.812000
H 38.540000 36.936281 22.730000
O 39.442000 27.949281 22.724000
H 39.167000 27.448281 23.493000
H 40.164000 28.493281 23.037000
O -14.593000 31.608281 23.053000
H -14.829000 31.181281 23.877000
H -15.121000 31.161281 22.392000
O 33.280000 44.764281 19.437000
H 34.029000 44.328281 19.030000
H 33.285000 44.455281 20.343000
O 33.975000 38.005281 22.003000
H 33.394000 38.270281 22.716000
H 33.977000 37.048281 22.037000
O -21.949000 39.280281 17.619000
H -21.321000 38.700281 18.050000
H -22.582000 39.498281 18.303000
O -5.830000 34.103281 23.632000
H -5.641000 34.124281 24.570000
H -5.655000 33.199281 23.371000
O -11.497000 44.912281 11.742000
H -12.311000 45.325281 11.454000
H -11.543000 44.931281 12.697000
O -14.328000 34.465281 19.105000
H -14.440000 33.566281 18.795000
H -14.688000 35.008281 18.404000
O -18.107000 36.621281 17.925000
H -17.260000 36.594281 17.480000
H -17.935000 36.250281 18.790000
O -22.042000 38.200281 23.092000
H -21.333000 38.281281 23.729000
H -21.743000 38.701281 22.333000
O -25.235000 48.760281 17.017000
H -26.121000 48.412281 17.119000
H -24.666000 48.077281 17.374000
O -18.907000 33.787281 14.925000
H -17.968000 33.700281 15.089000
H -18.994000 33.699281 13.976000
O -14.234000 40.145281 65.371000
H -15.104000 40.266281 65.752000
H -14.251000 40.662281 64.565000
O -13.179000 46.502281 16.787000
H -13.300000 45.609281 16.462000
H -13.936000 46.657281 17.351000
O 34.061000 31.816281 16.930000
H 34.692000 32.382281 16.487000
H 33.439000 31.568281 16.246000
O -15.342000 27.880281 24.823000
H -15.464000 28.811281 25.011000
H -14.820000 27.864281 24.020000
O -13.978000 44.176281 15.853000
H -14.155000 43.279281 16.136000
H -14.665000 44.367281 15.215000
O 41.628000 32.691281 17.870000
H 41.480000 31.798281 17.560000
H 42.294000 32.600281 18.552000
O 33.295000 28.609281 21.370000
H 32.697000 28.979281 22.018000
H 33.995000 29.257281 21.292000
O -21.472000 39.574281 20.979000
H -21.100000 38.974281 20.333000
H -22.336000 39.796281 20.632000
O 31.875000 29.872281 23.366000
H 31.713000 30.781281 23.113000
H 31.004000 29.510281 23.529000
O 40.366000 35.667281 21.110000
H 41.091000 35.402281 21.677000
H 39.613000 35.731281 21.698000
O 31.087000 46.024281 67.999000
H 31.507000 45.375281 67.434000
H 31.590000 46.826281 67.859000
O -12.416000 36.240281 20.386000
H -12.926000 35.538281 19.981000
H -12.996000 36.602281 21.056000
O -9.746000 32.968281 20.850000
H -10.608000 33.086281 20.453000
H -9.445000 33.856281 21.042000
O -21.143000 45.609281 23.226000
H -22.083000 45.775281 23.292000
H -20.992000 45.449281 22.294000
O -15.396000 42.093281 16.575000
H -16.316000 41.920281 16.376000
H -15.382000 42.264281 17.517000
O -22.656000 42.775281 19.587000
H -23.226000 42.602281 20.336000
H -21.999000 43.386281 19.921000
O -16.289000 30.422281 21.118000
H -16.885000 29.675281 21.183000
H -16.801000 31.099281 20.677000
O 32.154000 44.183281 66.143000
H 32.133000 44.737281 65.363000
H 31.471000 43.530281 65.993000
O -17.197000 46.915281 16.803000
H -18.043000 47.002281 17.242000
H -16.739000 46.235281 17.297000
O 30.894000 27.892281 19.918000
H 31.628000 28.158281 20.473000
H 31.220000 27.996281 19.024000
O 35.176000 27.227281 14.024000
H 35.354000 28.116281 14.331000
H 35.587000 26.660281 14.677000
O -15.363000 38.021281 20.230000
H -16.127000 38.597281 20.211000
H -15.123000 37.972281 21.156000
O 37.348000 26.783281 67.648000
H 38.061000 27.323281 67.991000
H 37.100000 26.219281 68.381000
O 4.153000 1.410719 17.560000
H 4.838000 1.633719 16.931000
H 4.387000 1.893719 18.352000
O -14.743000 41.153281 13.660000
H -13.822000 41.410281 13.632000
H -15.077000 41.542281 14.468000
O 38.377000 32.423281 18.735000
H 38.243000 32.298281 17.796000
H 39.240000 32.831281 18.802000
O -17.698000 46.510281 22.618000
H -18.175000 45.765281 22.983000
H -18.135000 46.692281 21.786000
O -3.972000 35.225281 21.800000
H -3.370000 35.682281 22.387000
H -4.600000 34.798281 22.384000
O -20.218000 48.145281 24.468000
H -19.934000 48.869281 23.911000
H -20.457000 47.450281 23.855000
O 35.774000 33.482281 15.791000
H 36.208000 34.201281 16.250000
H 36.412000 32.768281 15.804000
O 38.558000 30.665281 66.850000
H 37.630000 30.568281 66.636000
H 38.779000 29.863281 67.325000
O 37.134000 30.170281 19.990000
H 36.349000 29.861281 19.538000
H 37.191000 31.099281 19.764000
O -14.765000 41.743281 23.031000
H -14.236000 41.750281 22.233000
H -14.863000 42.667281 23.262000
O 42.110000 27.899281 19.369000
H 42.562000 28.279281 20.122000
H 42.737000 27.275281 19.003000
O -17.975000 33.484281 12.368000
H -18.226000 34.354281 12.056000
H -17.022000 33.521281 12.440000
O 36.993000 39.340281 13.779000
H 36.926000 38.627281 13.144000
H 36.109000 39.702281 13.828000
O -17.541000 41.604281 20.857000
H -17.597000 40.924281 20.186000
H -18.451000 41.843281 21.033000
O 38.555000 29.597281 17.564000
H 38.141000 29.756281 18.412000
H 38.180000 30.262281 16.986000
O 32.243000 30.616281 15.233000
H 32.202000 30.616281 14.276000
H 31.762000 29.831281 15.493000
O 41.539000 33.416281 65.553000
H 40.927000 32.894281 65.033000
H 41.549000 32.991281 66.410000
O -15.698000 31.875281 67.715000
H -15.827000 32.781281 67.996000
H -15.313000 31.440281 68.476000
O -18.996000 35.178281 22.737000
H -18.927000 34.444281 23.348000
H -18.511000 35.888281 23.158000
O 37.795000 37.627281 15.811000
H 37.574000 38.261281 15.129000
H 38.473000 38.060281 16.330000
O -17.929000 41.665281 15.646000
H -17.829000 41.118281 14.868000
H -18.859000 41.603281 15.866000
O -17.300000 32.814281 19.265000
H -16.491000 32.599281 18.801000
H -17.131000 33.669281 19.661000
O 38.819000 33.848281 23.465000
H 39.359000 33.084281 23.263000
H 38.027000 33.485281 23.861000
O 41.267000 27.117281 14.957000
H 41.774000 27.551281 15.644000
H 41.909000 26.584281 14.487000
O 35.235000 37.009281 67.785000
H 35.832000 36.371281 67.393000
H 35.549000 37.111281 68.683000
O 35.388000 30.715281 23.790000
H 35.029000 31.067281 22.975000
H 35.971000 30.009281 23.510000
O -12.643000 30.353281 22.078000
H -12.052000 30.940281 21.608000
H -13.355000 30.919281 22.379000
O 13.977000 2.626719 11.574000
H 13.542000 3.457719 11.381000
H 14.710000 2.591719 10.959000
O -19.328000 36.624281 15.523000
H -19.044000 35.717281 15.414000
H -19.125000 36.831281 16.436000
O -18.477000 45.509281 20.048000
H -18.900000 46.075281 19.403000
H -17.730000 45.131281 19.584000
O 36.321000 33.240281 20.161000
H 36.224000 34.142281 20.465000
H 37.184000 33.218281 19.746000
O -2.066000 28.716281 23.432000
H -1.420000 28.011281 23.458000
H -2.601000 28.581281 24.214000
O 33.370000 38.899281 66.514000
H 33.580000 39.704281 66.988000
H 34.149000 38.351281 66.615000
O 37.909000 39.840281 24.819000
H 38.319000 39.148281 24.300000
H 37.115000 40.064281 24.334000
O 36.386000 33.177281 24.480000
H 35.606000 33.677281 24.717000
H 36.050000 32.326281 24.198000
O 39.220000 33.926281 12.281000
H 38.287000 33.781281 12.124000
H 39.371000 33.587281 13.163000
O -20.278000 37.702281 19.324000
H -20.831000 37.086281 19.804000
H -19.634000 37.150281 18.879000
O -14.065000 44.123281 24.361000
H -14.095000 44.640281 23.556000
H -13.148000 43.858281 24.442000
O -4.423000 38.474281 24.727000
H -5.378000 38.540281 24.717000
H -4.192000 38.470281 25.656000
O 43.402000 28.538281 12.821000
H 42.533000 28.378281 12.452000
H 43.287000 28.422281 13.764000
O 12.419000 2.210719 13.856000
H 12.860000 2.214719 13.006000
H 12.748000 1.424719 14.294000
O -16.221000 45.146281 18.582000
H -15.740000 44.354281 18.820000
H -15.898000 45.814281 19.188000
O -17.526000 35.964281 20.448000
H -18.111000 36.079281 21.197000
H -16.780000 36.534281 20.637000
O -20.554000 41.384281 16.285000
H -20.701000 40.948281 15.446000
H -20.954000 40.801281 16.931000
O -15.780000 53.120281 18.797000
H -16.127000 54.011281 18.737000
H -16.529000 52.558281 18.600000
O -23.530000 45.142281 10.114000
H -23.479000 44.201281 10.278000
H -24.462000 45.349281 10.190000
O -19.993000 41.886281 22.008000
H -20.505000 41.247281 21.511000
H -20.317000 41.807281 22.905000
O -15.903000 45.129281 14.317000
H -16.072000 46.031281 14.586000
H -16.770000 44.762281 14.146000
O -20.835000 44.410281 20.923000
H -19.948000 44.674281 20.675000
H -20.711000 43.621281 21.450000
O 37.800000 27.255281 24.830000
H 37.478000 27.207281 25.730000
H 37.070000 26.937281 24.298000
O 34.836000 43.514281 17.351000
H 34.205000 42.829281 17.571000
H 34.307000 44.215281 16.970000
O 33.485000 41.307281 23.789000
H 32.992000 40.487281 23.797000
H 33.402000 41.647281 24.679000
O -14.637000 39.194281 11.940000
H -14.770000 39.972281 12.483000
H -14.568000 39.533281 11.048000
O -11.266000 42.276281 18.308000
H -11.862000 41.630281 17.929000
H -10.649000 41.758281 18.826000
O 39.497000 33.356281 15.043000
H 40.406000 33.426281 15.333000
H 39.048000 34.079281 15.482000
O 34.688000 36.238281 16.720000
H 34.228000 35.510281 17.140000
H 34.001000 36.725281 16.265000
O -23.704000 45.890281 23.661000
H -24.130000 45.062281 23.439000
H -24.364000 46.558281 23.475000
O -17.100000 37.189281 23.465000
H -16.917000 38.111281 23.282000
H -17.510000 37.193281 24.330000
O -18.325000 39.581281 10.435000
H -19.097000 40.135281 10.554000
H -17.891000 39.937281 9.660000
O -11.175000 43.520281 24.368000
H -10.966000 43.184281 23.497000
H -10.735000 42.918281 24.969000
O 30.822000 37.019281 19.971000
H 31.233000 36.462281 19.311000
H 30.695000 36.444281 20.726000
O -14.884000 30.548281 65.584000
H -14.175000 30.005281 65.928000
H -15.225000 31.012281 66.350000
O 34.514000 31.278281 21.428000
H 33.689000 31.655281 21.122000
H 35.188000 31.731281 20.921000
O 36.496000 42.091281 20.906000
H 36.575000 41.246281 21.348000
H 35.577000 42.140281 20.643000
O 37.621000 31.369281 15.866000
H 38.275000 31.956281 15.487000
H 37.225000 30.931281 15.112000
O -17.023000 52.981281 11.988000
H -16.745000 53.897281 11.998000
H -16.352000 52.532281 11.474000
O 43.520000 28.427281 21.432000
H 42.881000 28.491281 22.142000
H 44.076000 27.687281 21.674000
O 35.951000 27.004281 19.146000
H 36.378000 27.231281 19.972000
H 35.356000 27.734281 18.975000
O 32.900000 41.396281 17.575000
H 32.055000 41.483281 18.017000
H 33.259000 40.572281 17.904000
O -19.338000 48.881281 20.254000
H -20.107000 48.696281 19.715000
H -18.746000 49.357281 19.672000
O -16.720000 48.486281 67.134000
H -15.786000 48.431281 67.335000
H -17.133000 48.704281 67.970000
O -16.880000 51.551281 67.094000
H -16.219000 51.747281 66.429000
H -17.113000 50.635281 66.938000
O -23.150000 52.608281 12.158000
H -22.565000 51.860281 12.041000
H -23.687000 52.376281 12.916000
O -29.227000 53.106281 67.007000
H -28.872000 53.321281 67.870000
H -30.083000 52.718281 67.190000
O -29.016000 52.786281 12.317000
H -29.551000 53.565281 12.471000
H -28.456000 53.021281 11.577000
O -24.869000 43.942281 67.435000
H -24.079000 44.353281 67.084000
H -24.554000 43.150281 67.870000
O 31.828000 44.163281 11.446000
H 32.365000 44.087281 10.657000
H 32.340000 44.721281 12.032000
O -21.615000 46.947281 9.347000
H -22.334000 46.316281 9.379000
H -20.879000 46.493281 9.759000
O -18.364000 49.203281 10.418000
H -18.020000 48.441281 10.884000
H -17.684000 49.422281 9.781000
O -19.454000 52.207281 66.967000
H -18.628000 51.919281 67.357000
H -20.130000 51.774281 67.489000
O -15.096000 47.770281 12.206000
H -14.440000 48.064281 11.574000
H -14.800000 48.127281 13.043000
O -22.681000 44.882281 66.286000
H -23.100000 45.325281 65.548000
H -21.852000 44.559281 65.933000
O -21.100000 49.688281 9.391000
H -20.221000 49.575281 9.754000
H -21.456000 48.801281 9.346000
O 34.716000 43.212281 65.667000
H 33.960000 43.558281 66.141000
H 35.471000 43.475281 66.194000
O -19.380000 45.776281 10.295000
H -18.755000 46.091281 10.948000
H -18.855000 45.644281 9.505000
O -20.081000 50.110281 22.599000
H -19.585000 50.914281 22.440000
H -19.811000 49.519281 21.896000
O -19.697000 52.562281 19.388000
H -20.591000 52.864281 19.227000
H -19.568000 52.682281 20.329000
O -19.272000 44.248281 67.680000
H -18.370000 43.983281 67.859000
H -19.190000 45.032281 67.137000
O -18.642000 52.995281 24.573000
H -18.024000 53.725281 24.613000
H -18.901000 52.850281 25.483000
O -15.240000 51.518281 10.360000
H -15.833000 50.999281 9.816000
H -14.838000 52.139281 9.753000
O -22.454000 50.013281 11.866000
H -22.020000 49.821281 11.035000
H -23.191000 49.403281 11.899000
O 34.304000 39.881281 13.004000
H 33.863000 40.565281 13.508000
H 34.444000 40.271281 12.141000
O 0.026000 1.616719 10.996000
H -0.223000 0.744719 10.693000
H -0.793000 2.007719 11.302000
O 32.517000 28.935281 9.660000
H 32.885000 28.052281 9.618000
H 31.595000 28.821281 9.430000
O -15.709000 28.034281 16.458000
H -14.883000 28.412281 16.758000
H -15.568000 27.855281 15.528000
O -22.623000 51.171281 24.018000
H -23.229000 50.433281 24.075000
H -21.766000 50.768281 23.883000
O -7.388000 50.725281 65.388000
H -8.225000 50.270281 65.484000
H -7.248000 50.773281 64.442000
O 35.438000 27.093281 11.192000
H 34.548000 26.987281 10.854000
H 35.318000 27.370281 12.100000
O -15.990000 48.627281 23.965000
H -16.520000 48.641281 24.762000
H -16.327000 47.884281 23.465000
O -15.824000 51.297281 15.875000
H -16.487000 50.883281 16.428000
H -15.876000 50.826281 15.044000
O -27.595000 50.585281 67.298000
H -26.854000 50.707281 67.891000
H -28.007000 51.448281 67.248000
O -27.993000 48.708281 10.816000
H -27.728000 47.972281 10.264000
H -27.198000 48.948281 11.293000
O -21.315000 47.886281 14.510000
H -21.628000 47.913281 13.605000
H -21.911000 47.281281 14.951000
O -20.510000 44.122281 16.836000
H -21.212000 44.672281 16.489000
H -20.775000 43.228281 16.620000
O 27.769000 1.724719 18.606000
H 28.523000 1.339719 19.053000
H 27.288000 2.179719 19.297000
O -13.901000 45.822281 9.165000
H -13.865000 44.938281 8.801000
H -14.122000 45.693281 10.088000
O -27.262000 51.981281 22.925000
H -27.542000 52.475281 23.696000
H -28.038000 51.487281 22.661000
O 30.513000 32.038281 18.035000
H 29.581000 31.986281 18.248000
H 30.626000 31.429281 17.305000
O -13.193000 49.632281 65.065000
H -14.089000 49.751281 64.751000
H -13.288000 49.138281 65.880000
O 38.089000 28.325281 9.832000
H 37.512000 27.823281 10.408000
H 38.360000 27.699281 9.160000
O 34.308000 31.096281 9.747000
H 33.686000 30.369281 9.701000
H 35.055000 30.806281 9.225000
O -13.652000 49.308281 10.443000
H -14.131000 50.131281 10.349000
H -13.541000 48.991281 9.547000
O 37.046000 30.999281 13.166000
H 36.697000 31.537281 12.455000
H 37.806000 30.559281 12.785000
O -4.968000 50.994281 19.534000
H -4.027000 51.147281 19.451000
H -5.373000 51.737281 19.087000
O 5.548000 1.473719 66.123000
H 5.889000 1.989719 66.853000
H 6.317000 1.034719 65.760000
O 33.660000 45.711281 13.171000
H 34.338000 45.210281 13.623000
H 33.651000 46.558281 13.616000
O -19.029000 52.620281 21.951000
H -18.160000 52.470281 21.578000
H -18.870000 52.747281 22.886000
O -14.397000 45.157281 11.851000
H -15.012000 44.422281 11.849000
H -14.884000 45.875281 12.254000
O 7.846000 0.197719 65.468000
H 7.868000 -0.720281 65.197000
H 8.625000 0.583719 65.068000
O 30.221000 51.018281 67.000000
H 30.611000 50.365281 66.419000
H 30.190000 50.590281 67.856000
O -15.445000 41.852281 9.241000
H -14.513000 41.640281 9.195000
H -15.571000 42.188281 10.128000
O -26.650000 53.110281 9.746000
H -26.123000 52.969281 8.960000
H -26.587000 54.051281 9.912000
O 16.319000 1.199719 67.853000
H 15.411000 1.307719 68.137000
H 16.533000 2.022719 67.414000
O -22.668000 50.563281 20.966000
H -22.436000 49.979281 20.244000
H -21.868000 50.629281 21.488000
O -16.238000 50.435281 13.570000
H -17.151000 50.558281 13.309000
H -15.844000 49.952281 12.844000
O 36.936000 28.874281 22.275000
H 37.183000 29.331281 21.471000
H 37.769000 28.668281 22.700000
O 8.679000 0.790719 19.131000
H 7.802000 0.610719 19.471000
H 8.896000 1.657719 19.474000
O -17.482000 51.019281 19.121000
H -17.667000 50.549281 18.308000
H -18.200000 51.647281 19.204000
O 38.733000 27.095281 15.846000
H 39.589000 27.349281 15.500000
H 38.589000 27.684281 16.586000
O 30.075000 52.231281 14.662000
H 30.412000 52.016281 15.532000
H 30.654000 52.924281 14.345000
O -10.436000 28.019281 18.224000
H -10.849000 27.287281 17.766000
H -9.593000 27.674281 18.518000
O -23.915000 46.981281 18.724000
H -23.796000 46.037281 18.830000
H -24.689000 47.185281 19.248000
O 16.724000 0.198719 16.638000
H 16.578000 0.067719 15.701000
H 15.987000 -0.242281 17.060000
O -25.037000 52.325281 14.829000
H -25.974000 52.175281 14.707000
H -24.644000 51.454281 14.773000
O -7.228000 42.419281 15.740000
H -7.121000 43.227281 15.238000
H -8.123000 42.137281 15.553000
O 8.664000 0.912719 22.125000
H 7.889000 0.354719 22.052000
H 9.337000 0.453719 21.621000
O -24.225000 49.679281 14.618000
H -23.276000 49.553281 14.609000
H -24.516000 49.256281 15.426000
O 33.386000 48.121281 24.572000
H 34.025000 48.828281 24.657000
H 32.586000 48.473281 24.963000
O -10.707000 28.198281 22.531000
H -11.347000 28.834281 22.210000
H -9.878000 28.676281 22.540000
O 10.003000 1.704719 24.224000
H 9.475000 1.709719 23.425000
H 10.622000 0.985719 24.098000
O -14.979000 48.094281 18.632000
H -14.362000 48.794281 18.846000
H -15.256000 47.750281 19.482000
O -27.957000 52.070281 18.641000
H -27.194000 51.497281 18.563000
H -27.643000 52.927281 18.353000
O -25.476000 46.299281 11.946000
H -25.285000 47.225281 12.100000
H -26.337000 46.163281 12.342000
O 35.930000 29.456281 66.813000
H 36.285000 28.568281 66.853000
H 35.436000 29.480281 65.993000
O -19.638000 46.569281 17.798000
H -20.407000 47.108281 17.613000
H -19.927000 45.672281 17.626000
O -26.582000 47.011281 20.064000
H -26.384000 46.927281 20.997000
H -27.242000 46.338281 19.897000
O -22.599000 45.739281 15.949000
H -23.073000 45.728281 16.780000
H -23.115000 45.177281 15.371000
O -25.881000 47.616281 22.880000
H -25.813000 48.384281 22.312000
H -26.770000 47.656281 23.232000
O -24.700000 47.372281 66.445000
H -25.463000 47.754281 66.012000
H -23.951000 47.814281 66.046000
O -14.091000 27.847281 22.450000
H -13.618000 28.679281 22.435000
H -13.790000 27.386281 21.667000
O 13.033000 2.481719 18.745000
H 12.962000 2.017719 19.579000
H 12.649000 1.883719 18.104000
O -18.273000 47.404281 14.295000
H -17.921000 47.141281 15.145000
H -19.223000 47.365281 14.406000
O -27.491000 48.267281 14.315000
H -27.620000 48.297281 15.263000
H -27.622000 49.170281 14.026000
O 4.845000 0.952719 22.050000
H 4.321000 0.281719 22.488000
H 5.254000 0.495719 21.315000
O 14.754000 0.053719 21.533000
H 14.600000 -0.815281 21.903000
H 14.819000 -0.095281 20.590000
O 32.139000 45.794281 24.033000
H 32.692000 46.486281 24.393000
H 31.566000 46.243281 23.412000
O -20.581000 52.600281 15.341000
H -21.039000 53.325281 15.766000
H -19.785000 52.995281 14.985000
O 4.948000 3.353719 23.425000
H 5.060000 2.535719 22.942000
H 5.430000 4.002719 22.913000
O 8.489000 1.194719 16.554000
H 8.174000 2.074719 16.347000
H 8.605000 1.197719 17.504000
O 35.706000 39.954281 23.155000
H 35.280000 39.270281 22.639000
H 35.017000 40.600281 23.312000
O 40.197000 26.382281 20.461000
H 40.828000 26.927281 19.990000
H 39.977000 26.890281 21.242000
O 36.019000 43.754281 23.231000
H 35.593000 43.432281 24.026000
H 36.359000 42.968281 22.805000
O -11.543000 48.062281 13.674000
H -10.939000 47.588281 14.247000
H -12.413000 47.795281 13.970000
O -25.520000 50.263281 21.654000
H -24.757000 50.804281 21.453000
H -26.155000 50.874281 22.029000
O -17.922000 49.724281 16.592000
H -17.725000 48.822281 16.339000
H -18.817000 49.869281 16.287000
O 11.429000 0.385719 10.451000
H 12.113000 -0.103281 10.907000
H 10.611000 0.063719 10.829000
O 2.445000 2.677719 21.566000
H 2.555000 3.628719 21.565000
H 3.326000 2.334719 21.715000
O -1.389000 46.857281 21.293000
H -1.361000 46.454281 20.425000
H -2.294000 46.741281 21.582000
O -21.482000 48.749281 18.624000
H -22.247000 48.222281 18.393000
H -21.281000 49.243281 17.828000
O 5.914000 2.190719 15.389000
H 6.089000 1.291719 15.110000
H 6.766000 2.624719 15.346000
O 43.448000 29.102281 15.563000
H 42.738000 29.270281 16.182000
H 44.050000 28.530281 16.039000
O -22.078000 46.225281 12.448000
H -22.500000 45.949281 11.634000
H -21.432000 45.542281 12.627000
O -10.624000 46.810281 16.995000
H -10.403000 45.897281 16.814000
H -11.575000 46.852281 16.896000
O -24.234000 52.644281 20.214000
H -23.516000 52.093281 20.527000
H -24.553000 52.201281 19.428000
O -9.795000 44.356281 17.034000
H -8.983000 44.479281 17.526000
H -10.190000 43.571281 17.414000
O 41.298000 29.693281 17.267000
H 40.361000 29.509281 17.204000
H 41.543000 29.391281 18.142000
O -22.210000 48.812281 66.284000
H -21.779000 48.775281 67.138000
H -21.498000 48.716281 65.652000
O 31.108000 48.071281 11.757000
H 30.981000 49.018281 11.810000
H 32.016000 47.965281 11.475000
O 39.875000 34.669281 18.325000
H 40.560000 34.081281 18.007000
H 40.071000 34.787281 19.254000
O -20.599000 49.875281 16.226000
H -20.781000 50.733281 15.845000
H -20.785000 49.255281 15.521000
O -0.068000 1.614719 65.662000
H -0.353000 1.104719 64.904000
H 0.691000 1.138719 66.000000
O -26.168000 49.884281 65.360000
H -26.171000 50.523281 64.647000
H -26.833000 50.203281 65.970000
O -17.737000 52.762281 14.593000
H -17.502000 52.760281 13.666000
H -16.998000 52.339281 15.030000
O -5.385000 31.953281 21.972000
H -5.638000 32.310281 21.121000
H -5.655000 31.035281 21.938000
O -13.890000 48.198281 67.313000
H -14.055000 47.358281 66.886000
H -13.545000 47.965281 68.175000
O 32.806000 45.731281 16.225000
H 32.340000 46.228281 15.552000
H 32.157000 45.113281 16.560000
O 40.651000 27.772281 12.345000
H 40.512000 27.495281 13.250000
H 40.020000 28.479281 12.211000
O -14.053000 48.322281 14.918000
H -13.908000 47.572281 15.495000
H -14.233000 49.051281 15.512000
O -16.362000 50.571281 22.021000
H -16.132000 49.918281 22.683000
H -16.311000 50.098281 21.191000
O -15.597000 46.805281 20.790000
H -16.239000 46.781281 21.500000
H -14.781000 46.511281 21.195000
O 32.281000 27.774281 17.528000
H 32.306000 26.864281 17.233000
H 31.678000 28.206281 16.923000
O -12.778000 37.833281 24.607000
H -11.956000 37.944281 24.129000
H -12.918000 38.674281 25.042000
O -4.927000 37.228281 14.843000
H -5.373000 36.602281 14.272000
H -4.079000 36.824281 15.027000
O -8.094000 43.352281 67.200000
H -8.887000 43.827281 66.951000
H -7.600000 43.973281 67.735000
O 32.181000 35.570281 18.116000
H 31.642000 34.981281 17.588000
H 32.922000 35.032281 18.395000
O -9.659000 45.376281 66.840000
H -9.307000 45.650281 65.993000
H -9.147000 45.866281 67.483000
O -7.851000 38.929281 13.365000
H -8.145000 38.628281 12.504000
H -7.325000 39.707281 13.180000
O 30.753000 48.327281 65.580000
H 30.221000 47.552281 65.397000
H 30.479000 48.966281 64.922000
O -11.114000 37.731281 10.546000
H -10.159000 37.798281 10.533000
H -11.365000 38.041281 11.416000
O 17.084000 2.602719 17.738000
H 17.004000 1.688719 17.465000
H 16.214000 2.973719 17.592000
O -10.305000 34.501281 67.787000
H -10.187000 33.554281 67.858000
H -11.217000 34.648281 68.038000
O 29.949000 33.996281 13.837000
H 30.406000 34.563281 13.216000
H 30.159000 33.107281 13.549000
O -4.760000 30.464281 8.713000
H -4.771000 30.430281 9.670000
H -5.600000 30.088281 8.450000
O 33.404000 31.106281 65.694000
H 33.832000 30.780281 64.903000
H 32.535000 30.704281 65.680000
O -8.275000 48.957281 12.609000
H -7.911000 48.269281 12.052000
H -8.542000 48.503281 13.409000
O -4.991000 40.482281 9.097000
H -4.589000 40.718281 8.261000
H -5.917000 40.699281 8.988000
O 43.337000 30.961281 11.377000
H 43.498000 31.817281 11.774000
H 43.362000 30.347281 12.110000
O -6.593000 39.917281 24.988000
H -7.252000 40.035281 25.672000
H -7.072000 39.524281 24.258000
O -6.648000 44.181281 9.639000
H -5.806000 43.740281 9.749000
H -6.639000 44.881281 10.292000
O 22.114000 0.611719 12.914000
H 21.919000 -0.319281 13.024000
H 22.868000 0.767719 13.482000
O -9.972000 32.063281 24.666000
H -9.509000 31.599281 23.968000
H -10.761000 32.403281 24.245000
O -8.386000 28.595281 65.406000
H -7.931000 28.560281 64.564000
H -7.685000 28.597281 66.058000
O -1.637000 52.543281 9.909000
H -0.806000 52.693281 9.458000
H -2.304000 52.788281 9.268000
O 30.855000 38.261281 15.841000
H 30.266000 37.556281 15.571000
H 31.733000 37.891281 15.743000
O -2.477000 32.233281 67.852000
H -3.225000 32.161281 68.446000
H -2.616000 33.060281 67.390000
O -9.190000 32.798281 10.773000
H -9.308000 33.692281 11.096000
H -8.973000 32.905281 9.847000
O -9.724000 46.392281 10.406000
H -10.340000 45.740281 10.741000
H -10.146000 47.233281 10.583000
O -4.187000 38.540281 67.675000
H -4.114000 39.245281 68.318000
H -5.091000 38.236281 67.753000
O -1.543000 40.625281 9.144000
H -1.621000 41.313281 8.483000
H -1.892000 39.842281 8.718000
O -10.697000 35.124281 11.890000
H -11.525000 34.887281 11.472000
H -10.611000 36.064281 11.734000
O 30.960000 28.683281 12.099000
H 31.712000 29.021281 11.612000
H 30.456000 28.192281 11.450000
O -11.906000 34.751281 14.256000
H -11.441000 34.630281 13.428000
H -12.027000 33.864281 14.595000
O -6.557000 36.928281 10.428000
H -5.942000 37.661281 10.406000
H -6.243000 36.330281 9.749000
O 41.676000 27.422281 67.402000
H 41.807000 26.505281 67.645000
H 41.903000 27.459281 66.473000
O 33.143000 41.516281 14.832000
H 32.230000 41.441281 14.555000
H 33.116000 41.392281 15.781000
O -7.784000 31.440281 12.708000
H -7.475000 32.062281 13.367000
H -8.163000 31.987281 12.020000
O 39.903000 35.685281 65.362000
H 39.596000 35.424281 64.493000
H 40.671000 35.136281 65.520000
O -14.162000 28.578281 9.736000
H -14.982000 29.063281 9.639000
H -13.585000 29.174281 10.213000
O -12.474000 29.310281 14.379000
H -12.305000 28.429281 14.044000
H -11.653000 29.781281 14.239000
O -4.577000 28.093281 11.266000
H -4.419000 29.030281 11.144000
H -4.907000 27.792281 10.420000
O -12.876000 30.348281 11.352000
H -12.276000 31.061281 11.573000
H -12.500000 29.578281 11.779000
O -7.147000 44.778281 13.938000
H -6.373000 44.530281 13.432000
H -7.385000 45.643281 13.605000
O -4.065000 39.029281 12.830000
H -3.870000 39.824281 13.327000
H -4.332000 38.391281 13.492000
O 34.721000 40.581281 10.429000
H 35.365000 41.146281 10.001000
H 33.939000 40.651281 9.881000
O -2.282000 44.756281 9.861000
H -1.392000 44.568281 10.157000
H -2.596000 45.434281 10.459000
O -10.092000 44.801281 14.338000
H -10.215000 44.375281 15.186000
H -9.271000 44.439281 14.004000
O -4.717000 41.122281 14.775000
H -4.038000 40.734281 15.328000
H -5.538000 40.783281 15.130000
O -8.567000 39.991281 66.797000
H -8.414000 40.453281 67.621000
H -8.562000 39.064281 67.036000
O -2.575000 36.277281 15.329000
H -2.672000 36.023281 16.247000
H -2.289000 35.477281 14.888000
O -2.956000 34.707281 66.658000
H -2.429000 35.037281 65.930000
H -2.692000 35.242281 67.407000
O -5.995000 35.736281 12.890000
H -5.404000 35.002281 12.718000
H -6.240000 36.055281 12.021000
O -4.651000 41.907281 66.099000
H -4.503000 41.709281 67.024000
H -5.319000 41.280281 65.823000
O -7.860000 40.273281 8.988000
H -8.251000 40.251281 8.115000
H -8.137000 41.112281 9.355000
O -8.732000 29.120281 11.401000
H -8.550000 28.270281 11.803000
H -8.230000 29.745281 11.924000
O 30.644000 36.963281 65.805000
H 30.499000 37.819281 66.209000
H 31.169000 36.481281 66.444000
O -11.372000 27.849281 11.231000
H -10.556000 28.318281 11.058000
H -11.093000 26.988281 11.543000
O -4.719000 30.903281 11.391000
H -5.492000 31.241281 11.843000
H -4.164000 31.671281 11.257000
O -4.349000 42.776281 10.168000
H -4.521000 41.918281 9.779000
H -3.460000 42.993281 9.887000
O -2.595000 28.516281 66.285000
H -1.974000 29.241281 66.222000
H -2.128000 27.841281 66.778000
O 33.346000 35.250281 22.345000
H 32.442000 35.185281 22.035000
H 33.315000 34.930281 23.246000
O -8.668000 38.401281 10.671000
H -8.421000 39.092281 10.056000
H -7.960000 37.760281 10.608000
O -2.677000 35.781281 11.056000
H -2.920000 36.705281 11.108000
H -1.744000 35.765281 11.272000
O 16.288000 2.537719 10.348000
H 16.068000 2.341719 9.437000
H 16.589000 3.445719 10.332000
O 30.464000 39.295281 66.981000
H 29.937000 39.263281 67.779000
H 31.367000 39.203281 67.286000
O 30.283000 30.856281 65.790000
H 30.298000 31.417281 65.015000
H 29.827000 31.374281 66.453000
O -7.656000 38.931281 22.719000
H -7.268000 39.745281 22.399000
H -7.027000 38.252281 22.473000
O -15.606000 36.140281 16.990000
H -15.435000 36.987281 16.577000
H -15.634000 35.519281 16.263000
O -7.637000 32.664281 66.088000
H -8.181000 32.825281 65.317000
H -7.052000 33.420281 66.132000
O -16.287000 31.136281 15.659000
H -15.776000 30.894281 14.887000
H -16.916000 30.423281 15.764000
O 32.253000 38.644281 24.089000
H 31.458000 38.150281 24.292000
H 32.772000 38.605281 24.892000
O -6.731000 42.026281 19.002000
H -7.081000 42.908281 18.877000
H -6.713000 41.647281 18.123000
O -8.836000 37.336281 67.564000
H -9.095000 36.416281 67.628000
H -9.239000 37.753281 68.325000
O -9.865000 48.660281 19.284000
H -9.996000 48.030281 18.576000
H -9.307000 49.338281 18.901000
O -5.310000 44.184281 12.295000
H -4.650000 44.124281 12.986000
H -4.957000 43.655281 11.580000
O -14.245000 36.603281 67.136000
H -13.799000 36.630281 66.289000
H -13.612000 36.193281 67.727000
O -6.448000 39.191281 16.094000
H -5.968000 38.482281 15.666000
H -7.312000 39.178281 15.682000
O -15.099000 38.573281 15.876000
H -14.401000 39.160281 16.168000
H -14.702000 38.057281 15.175000
O -12.452000 40.101281 17.229000
H -11.850000 39.947281 16.500000
H -12.524000 39.251281 17.663000
O -10.437000 39.381281 23.577000
H -10.735000 39.348281 22.668000
H -9.570000 38.974281 23.561000
O 26.936000 0.564719 23.271000
H 26.578000 -0.193281 22.809000
H 27.879000 0.519719 23.111000
O 34.117000 38.982281 17.707000
H 33.644000 38.761281 18.510000
H 34.862000 38.382281 17.695000
O -3.382000 33.086281 10.705000
H -3.220000 33.974281 11.025000
H -2.534000 32.794281 10.371000
O 30.781000 34.644281 21.414000
H 29.922000 34.221281 21.418000
H 31.317000 34.093281 20.844000
O -13.091000 41.397281 20.684000
H -13.075000 40.455281 20.856000
H -12.383000 41.538281 20.056000
O -6.023000 28.190281 13.627000
H -5.536000 28.210281 12.803000
H -6.878000 27.831281 13.391000
O -4.952000 29.601281 19.358000
H -4.344000 29.369281 20.060000
H -4.895000 28.872281 18.741000
O -1.291000 43.943281 16.667000
H -2.085000 44.074281 16.150000
H -1.385000 43.062281 17.031000
O -6.393000 41.243281 21.636000
H -6.534000 41.379281 20.699000
H -6.777000 42.016281 22.051000
O -13.675000 37.006281 14.314000
H -13.050000 36.281281 14.340000
H -14.349000 36.720281 13.698000
O 30.571000 45.464281 18.996000
H 31.488000 45.308281 19.221000
H 30.482000 45.127281 18.105000
O -7.192000 46.535281 11.132000
H -8.108000 46.500281 10.859000
H -6.755000 47.039281 10.445000
O -8.897000 47.773281 21.822000
H -8.405000 48.545281 22.102000
H -9.222000 48.000281 20.951000
O -2.149000 39.359281 22.178000
H -2.562000 38.536281 22.439000
H -1.723000 39.160281 21.344000
O -10.139000 36.414281 16.000000
H -10.745000 35.714281 15.759000
H -10.515000 36.793281 16.795000
O -10.012000 30.976281 14.172000
H -9.805000 30.743281 15.077000
H -9.166000 31.197281 13.782000
O -3.679000 41.741281 21.842000
H -3.267000 40.903281 22.052000
H -4.618000 41.562281 21.874000
O -3.449000 30.745281 17.272000
H -3.914000 31.442281 16.811000
H -4.000000 30.548281 18.030000
O -9.026000 30.025281 16.619000
H -9.361000 29.295281 17.141000
H -9.074000 30.781281 17.205000
O -15.253000 33.778281 12.776000
H -14.584000 33.634281 12.108000
H -15.386000 34.726281 12.781000
O -2.583000 29.589281 20.877000
H -2.249000 29.530281 21.772000
H -2.126000 28.894281 20.404000
O 36.179000 37.230281 18.682000
H 36.083000 36.704281 19.476000
H 35.701000 36.742281 18.012000
O -3.867000 39.878281 19.371000
H -3.884000 40.555281 20.047000
H -3.994000 39.058281 19.848000
O 33.562000 44.252281 22.085000
H 33.056000 44.740281 22.735000
H 34.389000 44.054281 22.524000
O -4.370000 33.604281 13.599000
H -3.440000 33.644281 13.818000
H -4.796000 33.322281 14.408000
O -5.633000 34.691281 66.347000
H -4.720000 34.645281 66.629000
H -5.993000 35.442281 66.819000
O -6.670000 29.324281 21.923000
H -6.377000 28.961281 21.087000
H -6.671000 28.577281 22.522000
O -5.809000 35.707281 17.155000
H -4.978000 35.665281 17.629000
H -5.572000 36.020281 16.282000
O 19.351000 2.812719 16.653000
H 18.524000 2.743719 17.129000
H 19.095000 2.847719 15.731000
O -7.433000 33.745281 14.214000
H -6.930000 34.465281 13.835000
H -7.924000 34.146281 14.931000
O -8.580000 37.846281 20.136000
H -8.213000 38.241281 20.927000
H -8.050000 38.201281 19.422000
O -10.803000 37.546281 18.342000
H -11.312000 36.862281 18.778000
H -9.994000 37.604281 18.851000
O -10.874000 40.860281 65.845000
H -10.729000 40.526281 64.960000
H -10.191000 40.446281 66.373000
O -2.914000 36.335281 18.215000
H -2.361000 36.802281 18.842000
H -2.775000 35.409281 18.416000
O -2.394000 36.716281 23.673000
H -3.046000 37.326281 24.018000
H -1.684000 36.735281 24.315000
O -8.462000 35.332281 21.182000
H -8.615000 36.125281 20.668000
H -8.113000 35.649281 22.014000
O 30.559000 32.274281 23.477000
H 29.627000 32.432281 23.627000
H 30.701000 32.524281 22.564000
O 36.678000 33.086281 11.196000
H 36.814000 32.633281 10.364000
H 35.908000 33.635281 11.047000
O -4.728000 37.767281 20.841000
H -5.424000 37.769281 20.183000
H -4.472000 36.848281 20.916000
O -9.219000 35.186281 65.287000
H -9.799000 34.805281 64.627000
H -9.513000 34.804281 66.114000
O -8.384000 34.429281 16.711000
H -8.921000 35.174281 16.441000
H -7.623000 34.823281 17.137000
O -9.847000 38.991281 15.100000
H -9.156000 39.094281 14.446000
H -9.712000 38.113281 15.455000
O -11.932000 46.676281 19.554000
H -12.431000 47.491281 19.605000
H -12.219000 46.269281 18.737000
O -9.346000 41.229281 19.905000
H -8.474000 41.505281 19.623000
H -9.611000 41.889281 20.546000
O -7.333000 36.324281 23.328000
H -7.802000 36.195281 24.152000
H -6.640000 35.663281 23.340000
O -9.082000 30.922281 22.443000
H -8.240000 30.639281 22.087000
H -9.418000 31.544281 21.797000
O 37.392000 40.114281 67.527000
H 37.674000 39.979281 66.622000
H 36.444000 40.235281 67.468000
O 34.241000 33.958281 18.462000
H 34.166000 33.284281 17.786000
H 35.052000 33.745281 18.924000
O -12.981000 42.252281 67.009000
H -13.751000 42.020281 66.491000
H -12.257000 41.798281 66.578000
O 0.159000 1.831719 20.117000
H 0.849000 1.881719 20.779000
H -0.076000 2.742719 19.946000
O 30.560000 42.096281 13.208000
H 30.991000 42.660281 12.566000
H 30.426000 41.267281 12.749000
O -4.301000 38.223281 10.236000
H -4.567000 39.067281 9.872000
H -4.179000 38.391281 11.170000
O -16.417000 33.568281 23.642000
H -16.270000 33.861281 24.541000
H -15.601000 33.133281 23.395000
O 33.759000 41.687281 20.364000
H 33.317000 41.993281 21.156000
H 33.259000 40.918281 20.092000
O -4.179000 34.241281 19.167000
H -4.436000 34.834281 19.872000
H -4.867000 33.576281 19.150000
O 37.712000 39.735281 19.565000
H 37.122000 40.475281 19.421000
H 37.249000 38.984281 19.195000
O -5.329000 31.013281 66.278000
H -4.850000 31.384281 67.020000
H -6.078000 31.597281 66.161000
O -7.919000 44.712281 18.935000
H -7.401000 45.450281 18.614000
H -8.571000 45.110281 19.513000
O -6.475000 38.707281 18.676000
H -5.685000 39.226281 18.831000
H -6.551000 38.664281 17.723000
O -16.239000 33.827281 15.304000
H -16.173000 32.961281 15.706000
H -15.633000 33.794281 14.564000
O -14.998000 31.669281 18.047000
H -14.822000 30.960281 18.666000
H -15.440000 31.242281 17.313000
O -3.302000 43.408281 14.462000
H -3.927000 42.684281 14.510000
H -2.519000 43.024281 14.067000
O 33.911000 28.115281 24.941000
H 34.467000 27.543281 24.413000
H 33.424000 28.634281 24.302000
O -6.060000 32.278281 19.153000
H -5.826000 31.352281 19.091000
H -6.890000 32.348281 18.681000
O -3.070000 46.309281 14.109000
H -3.008000 46.381281 13.157000
H -3.296000 45.393281 14.267000
O -4.202000 46.953281 21.873000
H -4.391000 47.624281 21.218000
H -4.684000 46.182281 21.574000
O 32.558000 39.148281 19.933000
H 33.018000 38.885281 20.730000
H 31.961000 38.422281 19.750000
O 32.450000 32.605281 20.093000
H 31.849000 32.184281 19.479000
H 33.037000 33.120281 19.540000
O -11.433000 39.175281 20.983000
H -10.555000 39.438281 20.707000
H -11.554000 38.306281 20.600000
O -8.677000 32.260281 18.306000
H -8.750000 33.028281 17.739000
H -9.055000 32.540281 19.139000
O -5.208000 44.728281 20.527000
H -4.377000 44.320281 20.282000
H -5.699000 44.783281 19.707000
O -2.706000 40.031281 16.294000
H -2.874000 39.853281 17.220000
H -2.005000 39.423281 16.057000
O 0.661000 3.508719 23.502000
H 0.581000 2.976719 24.293000
H 1.334000 3.067719 22.983000
O -2.530000 32.281281 20.646000
H -3.451000 32.439281 20.437000
H -2.447000 31.327281 20.660000
O -17.754000 39.211281 16.837000
H -18.058000 39.976281 16.348000
H -16.874000 39.043281 16.499000
O -5.141000 48.164281 14.517000
H -4.643000 48.756281 13.953000
H -4.611000 47.368281 14.557000
O -14.865000 52.538281 65.501000
H -14.541000 53.142281 64.833000
H -14.663000 52.967281 66.331000
O -7.104000 28.936281 9.117000
H -7.705000 28.524281 8.497000
H -7.605000 29.002281 9.930000
O 0.714000 1.601719 14.887000
H 0.878000 1.578719 15.830000
H 1.018000 2.466719 14.612000
O -6.522000 51.016281 12.148000
H -5.922000 50.850281 12.875000
H -7.181000 50.326281 12.219000
O 19.800000 1.987719 11.834000
H 19.171000 1.312719 11.577000
H 20.591000 1.501719 12.068000
O -2.134000 48.413281 18.525000
H -1.562000 48.747281 17.833000
H -1.665000 47.658281 18.880000
O -9.806000 52.184281 16.661000
H -9.625000 53.124281 16.653000
H -10.676000 52.111281 17.052000
O -4.615000 45.837281 66.189000
H -5.254000 46.542281 66.292000
H -5.081000 45.160281 65.698000
O 19.703000 3.228719 65.301000
H 20.256000 3.797719 64.764000
H 20.316000 2.776719 65.881000
O -9.618000 51.052281 13.598000
H -9.442000 50.326281 12.999000
H -8.941000 50.978281 14.270000
O -6.632000 46.934281 18.199000
H -5.915000 47.406281 18.623000
H -7.066000 47.592281 17.657000
O 31.321000 48.729281 16.720000
H 31.249000 48.393281 15.826000
H 32.092000 48.290281 17.079000
O -9.929000 43.118281 21.768000
H -9.114000 43.018281 22.259000
H -9.865000 43.988281 21.372000
O -1.555000 50.171281 23.765000
H -1.592000 49.749281 22.907000
H -2.448000 50.105281 24.103000
O 26.380000 1.308719 65.897000
H 26.556000 0.760719 65.132000
H 26.955000 0.960719 66.579000
O 21.734000 1.098719 9.068000
H 21.989000 0.182719 9.182000
H 22.289000 1.415719 8.356000
O -7.320000 43.766281 22.649000
H -7.086000 44.030281 23.539000
H -6.802000 44.341281 22.085000
O -10.764000 50.434281 24.319000
H -10.320000 49.769281 24.845000
H -11.696000 50.289281 24.485000
O 25.581000 0.430719 12.096000
H 24.886000 1.002719 11.769000
H 25.324000 -0.446281 11.813000
O 23.717000 1.310719 14.988000
H 23.135000 1.671719 15.656000
H 24.515000 1.835719 15.055000
O 31.057000 47.269281 14.457000
H 30.233000 46.785281 14.510000
H 31.155000 47.476281 13.528000
O -3.883000 49.490281 10.048000
H -3.982000 49.607281 10.993000
H -4.731000 49.154281 9.757000
O -1.533000 28.176281 9.454000
H -1.947000 27.421281 9.035000
H -1.881000 28.933281 8.984000
O 30.330000 53.161281 23.373000
H 30.334000 52.211281 23.255000
H 30.933000 53.488281 22.705000
O -9.711000 50.278281 9.092000
H -10.452000 49.921281 9.583000
H -9.155000 50.683281 9.758000
O 43.463000 27.286281 9.372000
H 42.617000 27.098281 9.781000
H 43.612000 26.548281 8.781000
O -13.279000 29.160281 16.933000
H -12.410000 28.983281 17.292000
H -13.129000 29.296281 15.997000
O 3.112000 0.639719 64.988000
H 3.952000 0.996719 65.275000
H 2.643000 0.446719 65.800000
O -4.015000 52.292281 14.391000
H -4.102000 52.804281 13.587000
H -3.071000 52.186281 14.507000
O -29.173000 52.381281 9.038000
H -28.298000 52.765281 9.094000
H -29.431000 52.504281 8.124000
O -2.753000 47.075281 11.272000
H -3.120000 47.693281 10.639000
H -1.895000 47.440281 11.492000
O 17.854000 0.494719 11.102000
H 17.277000 1.096719 10.632000
H 17.283000 0.060719 11.736000
O -6.378000 43.827281 65.125000
H -7.084000 43.746281 65.767000
H -5.815000 43.071281 65.292000
O -7.583000 52.046281 9.769000
H -6.886000 51.841281 9.146000
H -7.176000 51.938281 10.628000
O -11.715000 47.927281 22.832000
H -11.748000 48.291281 23.716000
H -10.871000 48.217281 22.485000
O 33.140000 27.312281 67.441000
H 33.360000 27.475281 66.524000
H 33.540000 28.040281 67.917000
O 30.730000 41.736281 66.192000
H 30.617000 40.788281 66.268000
H 30.022000 42.016281 65.612000
O -4.943000 27.017281 65.505000
H -4.158000 27.489281 65.782000
H -4.678000 26.097281 65.495000
O -6.076000 30.179281 15.660000
H -5.779000 29.753281 14.856000
H -7.030000 30.197281 15.583000
O 24.042000 2.136719 10.375000
H 23.290000 1.771719 9.910000
H 24.551000 2.580719 9.697000
O -11.317000 32.262281 12.305000
H -10.850000 31.809281 13.007000
H -10.639000 32.474281 11.664000
O -6.302000 48.194281 9.278000
H -7.090000 48.455281 8.803000
H -5.855000 47.588281 8.688000
O -9.418000 46.025281 24.123000
H -9.364000 46.528281 23.311000
H -10.200000 45.482281 24.018000
O 30.729000 50.598281 11.629000
H 31.404000 51.073281 12.113000
H 30.511000 51.173281 10.895000
O -3.210000 52.831281 67.643000
H -3.766000 52.236281 68.145000
H -2.574000 52.259281 67.213000
O -4.034000 49.577281 24.433000
H -4.310000 49.624281 25.349000
H -4.057000 48.644281 24.223000
O 27.657000 2.618719 11.640000
H 27.195000 3.452719 11.718000
H 27.008000 1.960719 11.890000
O 22.000000 1.759719 16.962000
H 21.272000 2.376719 16.885000
H 22.400000 1.964719 17.807000
O -14.135000 52.674281 13.276000
H -13.528000 51.951281 13.433000
H -14.979000 52.250281 13.121000
O -13.388000 45.990281 22.020000
H -12.883000 46.636281 22.515000
H -12.744000 45.567281 21.452000
O -11.594000 51.111281 21.044000
H -11.440000 50.739281 21.912000
H -12.118000 50.451281 20.589000
O -6.227000 28.686281 67.167000
H -5.885000 29.421281 66.658000
H -5.980000 27.910281 66.663000
O 21.033000 2.698719 21.371000
H 20.454000 3.398719 21.672000
H 20.707000 2.475719 20.499000
O -5.637000 28.029281 17.180000
H -5.474000 27.342281 16.534000
H -5.613000 28.842281 16.677000
O -13.561000 26.741281 66.546000
H -14.219000 27.176281 66.003000
H -12.852000 26.529281 65.939000
O -1.449000 49.921281 20.984000
H -1.214000 49.019281 20.766000
H -1.878000 50.254281 20.195000
O -1.334000 28.977281 16.296000
H -2.101000 29.301281 16.769000
H -1.576000 28.093281 16.023000
O -2.622000 42.562281 24.371000
H -3.307000 42.333281 24.999000
H -2.998000 42.348281 23.517000
O -5.242000 51.373281 22.217000
H -5.073000 51.208281 21.289000
H -4.690000 50.740281 22.677000
O 23.278000 1.281719 22.431000
H 22.595000 1.740719 21.942000
H 23.237000 0.380719 22.112000
O -27.912000 51.103281 14.267000
H -28.091000 51.669281 13.515000
H -28.372000 51.521281 14.995000
O -8.679000 52.176281 21.042000
H -9.626000 52.216281 20.911000
H -8.339000 51.816281 20.223000
O 18.001000 0.506719 21.049000
H 18.418000 0.782719 21.865000
H 18.290000 -0.397281 20.925000
O -12.515000 51.341281 16.801000
H -12.254000 51.057281 15.925000
H -13.210000 51.981281 16.648000
O -3.414000 50.203281 13.133000
H -2.604000 50.512281 12.729000
H -3.681000 50.916281 13.713000
O -3.585000 32.275281 24.007000
H -4.092000 32.354281 23.200000
H -3.996000 31.550281 24.479000
O -8.048000 51.025281 18.602000
H -7.540000 50.354281 18.147000
H -8.384000 51.587281 17.903000
O -7.292000 49.063281 16.286000
H -6.606000 48.695281 15.729000
H -7.289000 49.999281 16.084000
O -9.071000 47.345281 14.505000
H -9.171000 47.707281 15.385000
H -9.323000 46.426281 14.593000
O -3.038000 43.281281 19.752000
H -3.158000 42.701281 20.504000
H -2.182000 43.686281 19.896000
O 22.203000 3.470719 12.867000
H 21.249000 3.402719 12.890000
H 22.509000 2.563719 12.851000
O -4.638000 48.013281 19.497000
H -4.951000 48.916281 19.446000
H -3.798000 48.024281 19.038000
O 33.681000 47.795281 17.581000
H 33.450000 46.935281 17.229000
H 33.993000 47.615281 18.467000
O -6.705000 51.832281 15.456000
H -5.936000 51.815281 14.886000
H -7.021000 52.735281 15.407000
O 23.734000 0.982719 65.452000
H 24.547000 1.329719 65.821000
H 23.971000 0.707719 64.566000
O 21.893000 2.506719 66.656000
H 22.513000 1.959719 66.173000
H 22.095000 3.400719 66.380000
O 25.816000 2.941719 15.181000
H 26.726000 2.734719 15.396000
H 25.877000 3.641719 14.532000
O -7.657000 50.379281 22.798000
H -8.352000 50.687281 22.217000
H -6.877000 50.852281 22.511000
O -6.690000 27.062281 23.426000
H -5.962000 26.957281 24.039000
H -7.070000 26.186281 23.354000
O -9.791000 41.567281 15.083000
H -9.752000 40.610281 15.097000
H -10.538000 41.768281 14.518000
O -29.252000 51.535281 21.018000
H -30.030000 50.994281 20.884000
H -28.989000 51.799281 20.136000
O 19.411000 1.449719 23.290000
H 19.477000 2.101719 23.988000
H 20.165000 1.624719 22.727000
O -5.154000 49.802281 67.000000
H -5.027000 50.052281 67.915000
H -5.910000 50.313281 66.713000
O -10.619000 52.493281 65.716000
H -10.281000 53.287281 65.303000
H -10.564000 51.825281 65.033000
O 23.936000 1.961719 19.545000
H 24.469000 1.267719 19.158000
H 24.265000 2.045719 20.440000
O 18.312000 3.195719 14.041000
H 17.370000 3.343719 13.960000
H 18.519000 2.581719 13.336000
O 1.488000 1.678719 17.382000
H 2.420000 1.618719 17.593000
H 1.055000 1.769719 18.231000
O -9.808000 45.461281 20.755000
H -9.233000 46.131281 21.125000
H -10.584000 45.942281 20.467000
O -25.801000 50.870281 18.457000
H -25.804000 50.438281 19.311000
H -25.455000 50.211281 17.856000
O -12.617000 49.408281 19.120000
H -11.684000 49.194281 19.086000
H -12.742000 50.046281 18.418000
O 26.790000 2.562719 21.069000
H 26.590000 3.370719 21.542000
H 26.771000 1.880719 21.741000
O -7.777000 27.623281 18.621000
H -7.045000 28.019281 18.148000
H -7.391000 26.874281 19.076000
O -10.893000 48.964281 11.042000
H -10.819000 48.627281 11.935000
H -11.779000 49.322281 10.993000
O -12.331000 50.770281 14.020000
H -12.156000 49.831281 14.089000
H -11.514000 51.143281 13.690000
O 32.602000 27.477281 14.411000
H 33.533000 27.462281 14.189000
H 32.166000 27.731281 13.598000
O 30.963000 51.544281 17.073000
H 30.915000 50.590281 17.121000
H 31.757000 51.769281 17.558000
O -7.577000 52.799281 67.970000
H -7.702000 52.652281 67.032000
H -8.433000 53.090281 68.283000
O 28.419000 3.158719 16.028000
H 28.200000 2.814719 16.894000
H 29.090000 2.562719 15.696000
O 25.113000 0.053719 18.098000
H 24.634000 0.146719 17.274000
H 26.017000 0.278719 17.876000
O 30.418000 34.124281 16.567000
H 30.479000 33.302281 17.054000
H 30.112000 33.866281 15.698000
O -24.033000 44.349281 17.945000
H -23.516000 43.709281 18.435000
H -24.884000 43.928281 17.825000
O -2.441000 51.784281 19.327000
H -2.298000 51.858281 18.384000
H -2.033000 52.569281 19.694000
O 17.584000 3.043719 20.398000
H 17.426000 2.871719 19.470000
H 17.690000 2.176719 20.788000
O -12.334000 36.832281 32.702000
H -11.776000 36.627281 33.451000
H -12.600000 37.741281 32.842000
O -13.216000 30.516281 33.202000
H -13.851000 31.199281 32.991000
H -12.683000 30.891281 33.903000
O 37.667000 31.595281 34.583000
H 38.005000 31.487281 33.694000
H 36.965000 30.947281 34.653000
O -10.558000 30.057281 26.378000
H -9.815000 29.530281 26.083000
H -10.600000 30.782281 25.755000
O -21.960000 43.816281 33.005000
H -21.061000 43.569281 32.789000
H -22.031000 43.661281 33.947000
O -22.958000 41.827281 31.657000
H -22.123000 41.361281 31.616000
H -22.767000 42.616281 32.164000
O -13.154000 43.792281 32.556000
H -12.204000 43.767281 32.442000
H -13.294000 44.418281 33.266000
O -15.382000 28.106281 30.247000
H -14.725000 27.434281 30.065000
H -16.113000 27.891281 29.669000
O 32.333000 39.923281 29.765000
H 33.196000 39.843281 30.171000
H 32.045000 40.808281 29.987000
O 38.456000 38.147281 31.955000
H 38.353000 37.240281 32.244000
H 38.367000 38.666281 32.754000
O -2.792000 36.595281 28.788000
H -3.233000 36.407281 29.616000
H -3.232000 37.376281 28.453000
O -9.486000 48.721281 25.831000
H -9.469000 47.764281 25.814000
H -9.598000 48.943281 26.755000
O 42.457000 31.561281 33.192000
H 42.975000 32.263281 32.799000
H 43.097000 31.022281 33.657000
O -17.643000 33.140281 31.441000
H -18.235000 32.768281 30.788000
H -17.471000 34.029281 31.130000
O 39.387000 28.631281 33.062000
H 39.872000 28.583281 32.238000
H 39.752000 29.394281 33.510000
O -16.091000 35.063281 26.006000
H -15.508000 35.512281 26.618000
H -16.772000 35.706281 25.806000
O -6.471000 47.634281 26.223000
H -6.860000 47.546281 27.093000
H -6.262000 48.565281 26.146000
O 37.595000 35.018281 26.578000
H 38.391000 35.086281 26.050000
H 37.195000 34.193281 26.303000
O -12.519000 47.575281 29.503000
H -11.669000 47.177281 29.692000
H -12.899000 47.748281 30.364000
O -18.518000 36.439281 25.679000
H -18.770000 35.607281 26.080000
H -19.272000 37.011281 25.821000
O 36.328000 37.074281 30.359000
H 37.023000 37.536281 30.829000
H 35.904000 36.535281 31.026000
O -18.528000 35.382281 28.656000
H -18.751000 36.255281 28.979000
H -19.245000 34.825281 28.958000
O 2.916000 0.230719 32.166000
H 2.639000 1.140719 32.270000
H 2.169000 -0.201281 31.753000
O 30.568000 49.272281 33.549000
H 30.281000 49.544281 32.677000
H 31.502000 49.480281 33.571000
O -15.295000 32.368281 32.691000
H -14.701000 33.119281 32.708000
H -16.042000 32.666281 32.172000
O -24.293000 45.318281 32.248000
H -23.409000 45.097281 32.541000
H -24.180000 45.605281 31.342000
O -14.944000 45.362281 26.571000
H -14.164000 45.259281 27.116000
H -14.714000 44.943281 25.741000
O -4.446000 41.218281 28.698000
H -5.242000 41.663281 28.988000
H -3.736000 41.809281 28.949000
O 42.947000 28.690281 31.366000
H 43.575000 28.218281 30.819000
H 43.379000 28.765281 32.217000
O -18.343000 40.467281 29.195000
H -18.655000 39.577281 29.362000
H -18.568000 40.632281 28.280000
O 33.305000 38.745281 33.869000
H 33.682000 38.072281 33.302000
H 33.816000 39.532281 33.681000
O -0.175000 3.341719 27.652000
H 0.717000 3.684719 27.604000
H -0.274000 2.815719 26.859000
O 37.306000 40.158281 33.546000
H 36.404000 40.300281 33.260000
H 37.819000 40.799281 33.053000
O -20.455000 40.875281 31.740000
H -19.918000 40.426281 31.088000
H -19.901000 41.588281 32.057000
O 31.728000 51.318281 31.438000
H 32.340000 50.696281 31.831000
H 31.332000 50.837281 30.711000
O -20.636000 38.164281 25.498000
H -21.180000 37.410281 25.729000
H -20.707000 38.751281 26.250000
O 3.953000 0.284719 28.336000
H 4.347000 0.569719 27.512000
H 4.696000 0.025719 28.881000
O -16.114000 37.835281 30.511000
H -16.914000 38.295281 30.258000
H -15.408000 38.443281 30.291000
O -19.266000 45.146281 30.494000
H -18.625000 44.436281 30.532000
H -19.946000 44.824281 29.903000
O 36.143000 35.644281 34.646000
H 35.604000 36.309281 35.074000
H 36.497000 35.123281 35.367000
O 36.595000 33.133281 31.062000
H 36.466000 32.828281 30.164000
H 35.783000 32.901281 31.513000
O -24.605000 51.994281 29.664000
H -24.421000 51.090281 29.409000
H -24.729000 51.955281 30.613000
O -16.733000 37.938281 27.408000
H -17.425000 37.346281 27.114000
H -15.926000 37.434281 27.303000
O -14.206000 40.175281 30.300000
H -14.510000 40.237281 29.395000
H -14.614000 40.920281 30.742000
O -14.770000 30.944281 30.066000
H -14.742000 30.002281 30.231000
H -15.174000 31.314281 30.851000
O 2.302000 2.968719 32.297000
H 1.509000 3.422719 32.581000
H 2.242000 2.955719 31.341000
O -15.802000 40.475281 33.951000
H -16.598000 40.951281 34.186000
H -16.098000 39.581281 33.778000
O 38.584000 35.201281 29.221000
H 38.267000 35.153281 28.320000
H 37.889000 35.657281 29.696000
O 30.963000 45.194281 30.716000
H 30.888000 45.460281 29.800000
H 31.682000 45.723281 31.062000
O 31.369000 32.300281 34.750000
H 31.594000 33.000281 35.363000
H 32.150000 31.748281 34.719000
O -15.768000 41.061281 28.054000
H -16.561000 40.574281 28.281000
H -16.069000 41.959281 27.920000
O 44.189000 28.620281 33.917000
H 43.557000 28.484281 34.624000
H 44.392000 27.739281 33.604000
O 40.912000 30.916281 30.929000
H 41.397000 31.150281 31.720000
H 41.504000 30.337281 30.447000
O -19.236000 37.204281 32.681000
H -19.639000 37.795281 33.317000
H -19.754000 36.401281 32.737000
O 30.702000 27.719281 30.432000
H 30.161000 28.503281 30.537000
H 30.213000 27.172281 29.817000
O 13.817000 1.619719 28.691000
H 12.940000 1.396719 28.378000
H 13.862000 2.572719 28.619000
O -16.451000 37.975281 33.181000
H -17.314000 37.562281 33.166000
H -16.131000 37.896281 32.282000
O 30.814000 31.702281 29.948000
H 30.299000 31.977281 29.189000
H 30.260000 31.062281 30.395000
O 35.474000 30.976281 29.149000
H 35.791000 30.436281 28.425000
H 34.634000 30.586281 29.389000
O 6.997000 2.656719 32.283000
H 7.744000 2.086719 32.462000
H 7.321000 3.539719 32.461000
O 34.069000 34.108281 25.276000
H 33.616000 33.267281 25.214000
H 33.468000 34.669281 25.766000
O -12.488000 44.847281 27.645000
H -12.645000 43.964281 27.312000
H -11.620000 45.078281 27.316000
O -17.783000 42.923281 30.988000
H -17.746000 42.129281 30.455000
H -16.891000 43.032281 31.319000
O 36.995000 29.079281 32.054000
H 37.853000 29.223281 32.451000
H 37.025000 29.571281 31.233000
O -19.107000 38.028281 30.097000
H -19.374000 37.779281 30.982000
H -19.919000 38.021281 29.591000
O 40.763000 34.158281 29.737000
H 40.702000 34.234281 30.690000
H 39.929000 34.501281 29.416000
O -19.510000 41.462281 26.617000
H -19.805000 42.352281 26.813000
H -18.714000 41.582281 26.099000
O -5.342000 45.979281 34.426000
H -5.728000 46.804281 34.718000
H -4.424000 46.035281 34.692000
O -18.533000 46.594281 26.092000
H -19.007000 47.274281 25.614000
H -17.813000 47.059281 26.519000
O 38.527000 31.644281 32.027000
H 39.254000 31.554281 31.411000
H 37.929000 32.261281 31.605000
O 40.717000 35.100281 32.560000
H 40.913000 34.929281 33.481000
H 39.777000 35.278281 32.544000
O 34.743000 41.217281 27.527000
H 34.711000 41.945281 28.148000
H 34.846000 41.636281 26.672000
O 12.640000 2.351719 33.133000
H 11.903000 2.827719 33.517000
H 13.045000 1.898719 33.873000
O -23.630000 42.156281 29.202000
H -23.445000 41.769281 30.058000
H -23.712000 41.406281 28.613000
O -16.676000 43.952281 28.364000
H -15.979000 43.926281 29.019000
H -16.260000 44.325281 27.586000
O -15.132000 42.170281 31.890000
H -15.147000 41.576281 32.641000
H -14.370000 42.728281 32.041000
O -28.302000 49.520281 33.348000
H -28.366000 48.930281 34.099000
H -27.419000 49.379281 33.007000
O 32.517000 34.282281 31.935000
H 32.391000 34.275281 30.986000
H 31.683000 33.974281 32.291000
O -19.890000 47.350281 28.854000
H -19.598000 47.023281 28.003000
H -19.652000 46.658281 29.471000
O 37.901000 35.556281 32.443000
H 37.565000 35.695281 33.328000
H 37.299000 34.921281 32.054000
O 34.294000 31.973281 32.450000
H 33.658000 31.282281 32.265000
H 33.760000 32.744281 32.644000
O -11.244000 43.264281 29.937000
H -11.444000 42.375281 29.645000
H -11.480000 43.820281 29.195000
O 34.452000 36.273281 32.324000
H 33.704000 35.682281 32.234000
H 34.962000 35.907281 33.046000
O 35.710000 43.209281 32.586000
H 36.309000 43.930281 32.393000
H 35.648000 43.197281 33.541000
O -21.377000 37.460281 28.578000
H -21.918000 36.683281 28.722000
H -21.974000 38.196281 28.708000
O 32.419000 35.644281 27.280000
H 32.269000 35.075281 28.035000
H 33.098000 36.253281 27.569000
O -21.789000 44.415281 29.451000
H -21.741000 44.475281 28.497000
H -22.225000 43.580281 29.618000
O -14.234000 40.145281 25.371000
H -15.104000 40.266281 25.752000
H -14.251000 40.662281 24.565000
O 31.087000 46.024281 27.999000
H 31.507000 45.375281 27.434000
H 31.590000 46.826281 27.859000
O 32.154000 44.183281 26.143000
H 32.133000 44.737281 25.363000
H 31.471000 43.530281 25.993000
O 37.348000 26.783281 27.648000
H 38.061000 27.323281 27.991000
H 37.100000 26.219281 28.381000
O 38.558000 30.665281 26.850000
H 37.630000 30.568281 26.636000
H 38.779000 29.863281 27.325000
O 41.539000 33.416281 25.553000
H 40.927000 32.894281 25.033000
H 41.549000 32.991281 26.410000
O -15.698000 31.875281 27.715000
H -15.827000 32.781281 27.996000
H -15.313000 31.440281 28.476000
O 5.692000 2.084719 29.999000
H 6.162000 2.078719 30.832000
H 4.946000 2.665719 30.148000
O 35.235000 37.009281 27.785000
H 35.832000 36.371281 27.393000
H 35.549000 37.111281 28.683000
O 40.829000 31.788281 28.015000
H 40.015000 31.525281 27.585000
H 40.546000 32.256281 28.800000
O 33.370000 38.899281 26.514000
H 33.580000 39.704281 26.988000
H 34.149000 38.351281 26.615000
O -14.884000 30.548281 25.584000
H -14.175000 30.005281 25.928000
H -15.225000 31.012281 26.350000
O -16.720000 48.486281 27.134000
H -15.786000 48.431281 27.335000
H -17.133000 48.704281 27.970000
O 41.081000 26.668281 34.526000
H 40.537000 26.167281 35.134000
H 40.498000 27.348281 34.187000
O -16.880000 51.551281 27.094000
H -16.219000 51.747281 26.429000
H -17.113000 50.635281 26.938000
O -20.477000 52.837281 33.953000
H -20.802000 51.973281 34.207000
H -19.666000 52.944281 34.449000
O -8.753000 53.120281 33.532000
H -9.091000 53.757281 32.903000
H -8.321000 52.457281 32.994000
O -29.227000 53.106281 27.007000
H -28.872000 53.321281 27.870000
H -30.083000 52.718281 27.190000
O 33.718000 45.349281 34.234000
H 33.631000 45.555281 33.303000
H 33.772000 46.202281 34.664000
O -15.164000 52.617281 31.468000
H -15.948000 53.034281 31.110000
H -14.705000 52.272281 30.703000
O -24.869000 43.942281 27.435000
H -24.079000 44.353281 27.084000
H -24.554000 43.150281 27.870000
O 9.862000 1.360719 30.425000
H 10.277000 0.591719 30.817000
H 8.980000 1.067719 30.198000
O 33.498000 45.933281 31.496000
H 33.939000 46.508281 30.871000
H 33.875000 45.068281 31.335000
O -15.893000 45.740281 34.110000
H -16.202000 46.109281 33.283000
H -15.010000 46.096281 34.217000
O -20.331000 46.998281 32.337000
H -20.042000 46.174281 31.944000
H -20.241000 46.859281 33.280000
O -22.263000 48.862281 31.947000
H -21.423000 48.403281 31.950000
H -22.612000 48.719281 31.067000
O 32.462000 48.403281 28.274000
H 32.748000 49.021281 27.601000
H 33.090000 48.517281 28.987000
O 13.178000 0.557719 31.078000
H 12.969000 1.222719 31.734000
H 13.490000 1.056719 30.323000
O -19.454000 52.207281 26.967000
H -18.628000 51.919281 27.357000
H -20.130000 51.774281 27.489000
O -14.425000 44.452281 30.003000
H -13.958000 44.805281 29.245000
H -13.743000 44.305281 30.658000
O -3.121000 45.251281 28.375000
H -2.309000 45.749281 28.278000
H -3.577000 45.371281 27.542000
O -22.681000 44.882281 26.286000
H -23.100000 45.325281 25.548000
H -21.852000 44.559281 25.933000
O -24.805000 52.260281 32.264000
H -25.667000 52.481281 32.616000
H -24.188000 52.717281 32.835000
O -24.149000 47.557281 33.683000
H -24.144000 46.699281 33.259000
H -23.423000 48.030281 33.277000
O 34.716000 43.212281 25.667000
H 33.960000 43.558281 26.141000
H 35.471000 43.475281 26.194000
O -16.002000 46.741281 31.470000
H -15.599000 45.986281 31.042000
H -15.541000 47.497281 31.108000
O -21.004000 51.107281 28.946000
H -20.619000 51.505281 29.727000
H -21.668000 51.734281 28.659000
O -18.253000 49.438281 29.117000
H -18.607000 50.133281 29.672000
H -18.928000 48.760281 29.121000
O -19.664000 52.223281 31.169000
H -19.929000 52.236281 32.089000
H -18.809000 52.651281 31.160000
O -16.516000 49.578281 34.086000
H -15.788000 50.065281 33.699000
H -17.026000 49.273281 33.335000
O -13.225000 48.385281 32.018000
H -12.478000 48.617281 32.569000
H -13.789000 49.158281 32.039000
O -19.272000 44.248281 27.680000
H -18.370000 43.983281 27.859000
H -19.190000 45.032281 27.137000
O 40.454000 30.615281 34.566000
H 39.804000 31.311281 34.471000
H 41.177000 30.883281 33.998000
O -25.687000 49.295281 32.175000
H -25.170000 48.652281 32.659000
H -25.293000 50.138281 32.400000
O -2.632000 46.898281 34.845000
H -1.951000 47.452281 34.463000
H -2.444000 46.898281 35.783000
O -24.826000 49.145281 28.534000
H -24.980000 48.608281 27.756000
H -23.922000 48.953281 28.783000
O -7.388000 50.725281 25.388000
H -8.225000 50.270281 25.484000
H -7.248000 50.773281 24.442000
O -27.595000 50.585281 27.298000
H -26.854000 50.707281 27.891000
H -28.007000 51.448281 27.248000
O -27.986000 52.115281 34.496000
H -27.821000 52.553281 33.661000
H -28.207000 51.215281 34.255000
O -23.967000 45.865281 29.700000
H -23.117000 45.464281 29.521000
H -24.336000 46.043281 28.835000
O -17.828000 51.897281 34.984000
H -18.186000 51.638281 35.833000
H -17.414000 51.103281 34.646000
O -26.843000 48.143281 30.024000
H -26.695000 48.487281 30.905000
H -26.043000 48.358281 29.544000
O -22.072000 48.694281 28.927000
H -21.707000 49.575281 29.013000
H -21.308000 48.117281 28.925000
O -13.193000 49.632281 25.065000
H -14.089000 49.751281 24.751000
H -13.288000 49.138281 25.880000
O -18.017000 48.583281 32.128000
H -18.839000 48.096281 32.191000
H -17.366000 47.925281 31.886000
O 40.419000 27.589281 30.711000
H 41.325000 27.876281 30.824000
H 40.489000 26.669281 30.457000
O 5.548000 1.473719 26.123000
H 5.889000 1.989719 26.853000
H 6.317000 1.034719 25.760000
O -14.301000 50.648281 33.009000
H -14.063000 51.201281 33.752000
H -14.708000 51.248281 32.384000
O -2.773000 49.036281 31.381000
H -3.587000 49.346281 31.777000
H -2.856000 48.083281 31.374000
O -21.353000 50.085281 34.418000
H -21.589000 49.501281 33.697000
H -21.685000 49.646281 35.201000
O 7.846000 0.197719 25.468000
H 7.868000 -0.720281 25.197000
H 8.625000 0.583719 25.068000
O 30.221000 51.018281 27.000000
H 30.611000 50.365281 26.419000
H 30.190000 50.590281 27.856000
O 34.800000 42.872281 29.837000
H 35.132000 43.100281 30.706000
H 35.421000 43.275281 29.230000
O -19.390000 43.091281 33.177000
H -18.732000 43.147281 32.484000
H -18.953000 42.616281 33.885000
O 34.143000 29.026281 32.505000
H 34.090000 28.113281 32.788000
H 35.065000 29.258281 32.613000
O -15.596000 49.221281 30.402000
H -15.024000 49.732281 29.829000
H -16.447000 49.654281 30.339000
O -22.507000 53.140281 28.156000
H -23.349000 52.908281 28.547000
H -22.710000 53.320281 27.238000
O -12.955000 39.576281 32.866000
H -13.355000 39.627281 31.998000
H -13.589000 39.994281 33.448000
O -2.679000 29.935281 31.000000
H -2.950000 30.093281 31.905000
H -3.453000 29.562281 30.580000
O 16.319000 1.199719 27.853000
H 15.411000 1.307719 28.137000
H 16.533000 2.022719 27.414000
O -0.559000 1.098719 29.076000
H -0.437000 1.951719 28.659000
H -1.365000 0.755719 28.691000
O 35.930000 29.456281 26.813000
H 36.285000 28.568281 26.853000
H 35.436000 29.480281 25.993000
O -2.149000 42.734281 28.280000
H -2.537000 43.582281 28.062000
H -1.674000 42.477281 27.489000
O -24.700000 47.372281 26.445000
H -25.463000 47.754281 26.012000
H -23.951000 47.814281 26.046000
O 11.301000 1.402719 28.032000
H 11.144000 0.615719 27.512000
H 10.636000 1.373719 28.720000
O -22.210000 48.812281 26.284000
H -21.779000 48.775281 27.138000
H -21.498000 48.716281 25.652000
O -0.068000 1.614719 25.662000
H -0.353000 1.104719 24.904000
H 0.691000 1.138719 26.000000
O -26.168000 49.884281 25.360000
H -26.171000 50.523281 24.647000
H -26.833000 50.203281 25.970000
O -13.890000 48.198281 27.313000
H -14.055000 47.358281 26.886000
H -13.545000 47.965281 28.175000
O -7.886000 36.298281 33.647000
H -7.878000 37.145281 34.094000
H -7.526000 36.482281 32.779000
O -2.845000 33.774281 34.682000
H -2.332000 33.191281 34.122000
H -2.325000 34.575281 34.735000
O -4.126000 35.972281 31.338000
H -4.563000 35.147281 31.548000
H -3.803000 36.294281 32.179000
O -10.710000 44.133281 33.731000
H -11.122000 44.872281 34.178000
H -10.651000 43.451281 34.400000
O -8.094000 43.352281 27.200000
H -8.887000 43.827281 26.951000
H -7.600000 43.973281 27.735000
O -6.031000 39.676281 30.619000
H -5.667000 40.448281 31.052000
H -6.684000 40.027281 30.012000
O -7.927000 41.047281 29.101000
H -8.056000 41.936281 28.770000
H -8.628000 40.925281 29.741000
O -9.659000 45.376281 26.840000
H -9.307000 45.650281 25.993000
H -9.147000 45.866281 27.483000
O -11.937000 40.753281 29.127000
H -12.274000 41.052281 28.282000
H -12.718000 40.619281 29.663000
O 30.753000 48.327281 25.580000
H 30.221000 47.552281 25.397000
H 30.479000 48.966281 24.922000
O -10.305000 34.501281 27.787000
H -10.187000 33.554281 27.858000
H -11.217000 34.648281 28.038000
O 30.799000 27.116281 33.201000
H 30.411000 26.298281 33.510000
H 30.435000 27.239281 32.324000
O 33.404000 31.106281 25.694000
H 33.832000 30.780281 24.903000
H 32.535000 30.704281 25.680000
O -9.856000 29.530281 31.437000
H -10.268000 29.342281 30.594000
H -10.512000 29.277281 32.087000
O 17.323000 2.866719 30.886000
H 17.867000 3.392719 31.472000
H 16.608000 2.552719 31.439000
O -6.533000 37.266281 31.454000
H -5.658000 36.886281 31.372000
H -6.460000 38.126281 31.040000
O -9.494000 44.574281 31.415000
H -9.911000 44.397281 32.258000
H -9.976000 44.033281 30.790000
O -7.346000 32.672281 29.929000
H -7.603000 33.415281 30.474000
H -8.103000 32.517281 29.363000
O 31.118000 42.360281 30.245000
H 30.496000 42.441281 29.522000
H 31.676000 43.135281 30.170000
O -7.338000 30.631281 34.166000
H -7.063000 30.624281 33.249000
H -6.696000 31.189281 34.605000
O -11.095000 29.669281 28.945000
H -10.883000 29.766281 28.017000
H -11.358000 28.754281 29.038000
O -7.348000 40.857281 33.998000
H -7.933000 40.909281 33.242000
H -6.473000 40.765281 33.619000
O -4.387000 39.825281 34.527000
H -4.057000 38.932281 34.424000
H -4.148000 40.265281 33.712000
O 20.867000 1.528719 31.744000
H 21.059000 1.367719 30.820000
H 21.287000 2.367719 31.934000
O 30.199000 33.211281 32.065000
H 29.254000 33.110281 31.948000
H 30.583000 32.765281 31.310000
O 34.569000 40.579281 32.607000
H 34.804000 41.493281 32.447000
H 34.746000 40.137281 31.777000
O -11.025000 36.168281 30.620000
H -11.581000 36.321281 31.384000
H -10.333000 35.589281 30.938000
O -2.324000 40.354281 32.411000
H -2.260000 39.956281 31.543000
H -2.026000 41.254281 32.286000
O -8.386000 28.595281 25.406000
H -7.931000 28.560281 24.564000
H -7.685000 28.597281 26.058000
O 4.537000 3.518719 33.534000
H 5.269000 3.113719 33.069000
H 3.756000 3.130719 33.138000
O -9.865000 38.407281 29.778000
H -10.277000 37.607281 30.103000
H -10.595000 38.949281 29.480000
O -6.851000 30.261281 31.473000
H -6.989000 31.092281 31.018000
H -7.710000 29.839281 31.470000
O -2.477000 32.233281 27.852000
H -3.225000 32.161281 28.446000
H -2.616000 33.060281 27.390000
O -4.187000 38.540281 27.675000
H -4.114000 39.245281 28.318000
H -5.091000 38.236281 27.753000
O -4.101000 37.030281 33.830000
H -4.867000 36.495281 34.041000
H -3.379000 36.611281 34.298000
O -3.911000 32.745281 31.677000
H -4.255000 32.358281 30.872000
H -3.932000 32.031281 32.314000
O 41.676000 27.422281 27.402000
H 41.807000 26.505281 27.645000
H 41.903000 27.459281 26.473000
O 39.903000 35.685281 25.362000
H 39.596000 35.424281 24.493000
H 40.671000 35.136281 25.520000
O 30.570000 38.897281 34.362000
H 30.165000 39.614281 33.875000
H 31.463000 38.849281 34.021000
O -10.652000 39.144281 34.279000
H -10.574000 38.289281 34.703000
H -11.593000 39.264281 34.153000
O -12.895000 34.822281 28.865000
H -12.465000 35.339281 29.546000
H -12.848000 33.920281 29.182000
O -6.058000 48.085281 30.458000
H -6.616000 48.827281 30.223000
H -5.746000 48.291281 31.339000
O -11.820000 32.030281 34.852000
H -11.523000 32.271281 33.975000
H -12.233000 32.823281 35.192000
O -5.146000 29.234281 29.695000
H -5.729000 29.242281 30.454000
H -5.687000 28.897281 28.981000
O -12.388000 32.220281 29.388000
H -13.219000 31.814281 29.633000
H -11.832000 31.487281 29.124000
O -1.811000 39.056281 30.022000
H -0.869000 39.183281 30.137000
H -1.903000 38.127281 29.810000
O 35.175000 33.360281 28.070000
H 35.145000 33.365281 27.113000
H 35.167000 32.433281 28.306000
O -14.029000 34.783281 32.263000
H -14.529000 35.076281 31.501000
H -13.388000 35.478281 32.410000
O 32.714000 33.734281 29.204000
H 32.519000 32.882281 29.593000
H 33.615000 33.654281 28.890000
O -8.567000 39.991281 26.797000
H -8.414000 40.453281 27.621000
H -8.562000 39.064281 27.036000
O -11.315000 33.059281 32.212000
H -12.057000 33.657281 32.120000
H -11.519000 32.331281 31.625000
O 35.222000 39.484281 30.217000
H 35.540000 38.585281 30.308000
H 35.845000 39.900281 29.622000
O -2.956000 34.707281 26.658000
H -2.429000 35.037281 25.930000
H -2.692000 35.242281 27.407000
O 24.822000 3.240719 31.801000
H 23.926000 3.517719 31.990000
H 24.776000 2.861719 30.924000
O -4.651000 41.907281 26.099000
H -4.503000 41.709281 27.024000
H -5.319000 41.280281 25.823000
O -7.367000 46.158281 32.544000
H -7.880000 45.467281 32.125000
H -6.756000 45.692281 33.114000
O -16.200000 35.073281 30.158000
H -16.139000 36.012281 30.336000
H -16.965000 34.987281 29.589000
O 30.644000 36.963281 25.805000
H 30.499000 37.819281 26.209000
H 31.169000 36.481281 26.444000
O -2.595000 28.516281 26.285000
H -1.974000 29.241281 26.222000
H -2.128000 27.841281 26.778000
O -4.925000 32.000281 29.203000
H -5.794000 32.336281 29.426000
H -4.956000 31.075281 29.448000
O -6.453000 36.879281 28.202000
H -7.342000 37.075281 27.908000
H -6.533000 36.768281 29.149000
O -9.133000 40.024281 31.917000
H -9.592000 39.631281 32.659000
H -9.172000 39.359281 31.230000
O -12.143000 28.104281 32.581000
H -11.967000 27.801281 33.472000
H -12.708000 28.868281 32.694000
O 26.072000 1.514719 33.276000
H 25.759000 2.266719 32.773000
H 25.409000 1.386719 33.954000
O 30.464000 39.295281 26.981000
H 29.937000 39.263281 27.779000
H 31.367000 39.203281 27.286000
O 2.497000 2.369719 29.589000
H 3.157000 1.705719 29.392000
H 2.388000 2.850719 28.768000
O 30.283000 30.856281 25.790000
H 30.298000 31.417281 25.015000
H 29.827000 31.374281 26.453000
O -9.109000 34.488281 31.329000
H -8.809000 34.990281 32.087000
H -9.802000 33.924281 31.673000
O -7.637000 32.664281 26.088000
H -8.181000 32.825281 25.317000
H -7.052000 33.420281 26.132000
O -8.836000 37.336281 27.564000
H -9.095000 36.416281 27.628000
H -9.239000 37.753281 28.325000
O -14.245000 36.603281 27.136000
H -13.799000 36.630281 26.289000
H -13.612000 36.193281 27.727000
O 33.571000 28.781281 29.864000
H 32.746000 28.296281 29.884000
H 33.855000 28.808281 30.778000
O -5.633000 34.691281 26.347000
H -4.720000 34.645281 26.629000
H -5.993000 35.442281 26.819000
O -10.874000 40.860281 25.845000
H -10.729000 40.526281 24.960000
H -10.191000 40.446281 26.373000
O -9.219000 35.186281 25.287000
H -9.799000 34.805281 24.627000
H -9.513000 34.804281 26.114000
O 43.147000 30.195281 28.408000
H 43.721000 30.865281 28.037000
H 42.262000 30.524281 28.252000
O 37.392000 40.114281 27.527000
H 37.674000 39.979281 26.622000
H 36.444000 40.235281 27.468000
O -12.981000 42.252281 27.009000
H -13.751000 42.020281 26.491000
H -12.257000 41.798281 26.578000
O -5.329000 31.013281 26.278000
H -4.850000 31.384281 27.020000
H -6.078000 31.597281 26.161000
O -14.865000 52.538281 25.501000
H -14.541000 53.142281 24.833000
H -14.663000 52.967281 26.331000
O -10.911000 49.079281 33.203000
H -10.026000 48.999281 32.846000
H -10.902000 49.907281 33.683000
O 18.580000 0.648719 29.025000
H 17.785000 0.691719 28.493000
H 18.362000 1.132719 29.822000
O -4.187000 50.939281 29.874000
H -3.732000 50.235281 30.337000
H -4.588000 51.462281 30.568000
O -14.378000 51.223281 28.946000
H -14.839000 51.583281 28.188000
H -13.514000 50.985281 28.612000
O 21.183000 1.293719 28.919000
H 21.450000 1.948719 28.274000
H 20.244000 1.181719 28.772000
O -1.741000 43.012281 32.575000
H -1.154000 42.829281 31.842000
H -2.392000 43.616281 32.217000
O 24.690000 1.484719 29.273000
H 24.942000 1.924719 28.461000
H 24.101000 0.783719 28.994000
O 18.792000 1.782719 33.661000
H 19.549000 1.788719 33.076000
H 19.080000 1.277719 34.421000
O -4.615000 45.837281 26.189000
H -5.254000 46.542281 26.292000
H -5.081000 45.160281 25.698000
O -8.507000 48.629281 32.103000
H -8.247000 49.053281 32.922000
H -7.858000 47.938281 31.975000
O 19.703000 3.228719 25.301000
H 20.256000 3.797719 24.764000
H 20.316000 2.776719 25.881000
O -7.085000 51.237281 32.092000
H -6.589000 51.951281 31.691000
H -7.523000 50.807281 31.358000
O -3.670000 30.160281 33.551000
H -2.993000 30.027281 34.215000
H -4.425000 29.669281 33.877000
O -5.200000 49.413281 32.673000
H -5.937000 49.934281 32.355000
H -4.894000 49.879281 33.451000
O 26.380000 1.308719 25.897000
H 26.556000 0.760719 25.132000
H 26.955000 0.960719 26.579000
O -5.239000 43.562281 29.903000
H -4.694000 44.291281 29.608000
H -5.074000 43.503281 30.844000
O 31.035000 43.070281 34.990000
H 30.532000 43.102281 34.176000
H 31.737000 43.708281 34.863000
O 60.867000 0.037719 31.581000
H 60.960000 0.350719 30.681000
H 61.525000 -0.652281 31.664000
O -7.736000 50.439281 29.583000
H -8.515000 49.975281 29.277000
H -7.708000 51.236281 29.053000
O -9.792000 46.925281 29.937000
H -9.548000 47.536281 30.633000
H -9.723000 46.060281 30.341000
O -7.005000 45.324281 28.928000
H -7.050000 45.922281 29.674000
H -6.554000 44.551281 29.267000
O 3.112000 0.639719 24.988000
H 3.952000 0.996719 25.275000
H 2.643000 0.446719 25.800000
O -9.900000 49.117281 28.431000
H -10.324000 48.370281 28.853000
H -10.592000 49.774281 28.354000
O -13.279000 46.271281 33.989000
H -12.788000 46.334281 34.809000
H -13.120000 47.107281 33.550000
O -6.378000 43.827281 25.125000
H -7.084000 43.746281 25.767000
H -5.815000 43.071281 25.292000
O 28.842000 1.719719 33.540000
H 27.885000 1.729719 33.568000
H 29.056000 1.063719 32.877000
O 33.140000 27.312281 27.441000
H 33.360000 27.475281 26.524000
H 33.540000 28.040281 27.917000
O 30.730000 41.736281 26.192000
H 30.617000 40.788281 26.268000
H 30.022000 42.016281 25.612000
O -4.943000 27.017281 25.505000
H -4.158000 27.489281 25.782000
H -4.678000 26.097281 25.495000
O -11.629000 51.222281 28.207000
H -11.601000 51.538281 27.304000
H -11.581000 52.016281 28.740000
O -5.330000 53.155281 31.330000
H -5.366000 53.717281 30.556000
H -5.002000 53.726281 32.025000
O -4.879000 41.476281 32.328000
H -3.993000 41.141281 32.187000
H -4.751000 42.378281 32.620000
O -9.135000 31.966281 28.103000
H -8.590000 32.282281 27.382000
H -9.543000 31.169281 27.765000
O -3.750000 46.604281 30.527000
H -3.478000 46.240281 29.684000
H -4.563000 47.072281 30.335000
O -3.210000 52.831281 27.643000
H -3.766000 52.236281 28.145000
H -2.574000 52.259281 27.213000
O 16.075000 1.600719 32.905000
H 15.824000 0.745719 32.556000
H 16.975000 1.481719 33.208000
O -4.311000 44.192281 32.318000
H -4.656000 44.648281 33.085000
H -3.793000 44.853281 31.858000
O -8.475000 27.223281 32.297000
H -8.788000 27.315281 33.197000
H -8.742000 28.035281 31.866000
O 30.221000 49.812281 29.349000
H 30.863000 49.155281 29.081000
H 29.647000 49.351281 29.962000
O -6.227000 28.686281 27.167000
H -5.885000 29.421281 26.658000
H -5.980000 27.910281 26.663000
O 44.619000 27.508281 28.019000
H 43.973000 28.213281 28.065000
H 44.984000 27.575281 27.136000
O -13.561000 26.741281 26.546000
H -14.219000 27.176281 26.003000
H -12.852000 26.529281 25.939000
O 23.734000 0.982719 25.452000
H 24.547000 1.329719 25.821000
H 23.971000 0.707719 24.566000
O 21.893000 2.506719 26.656000
H 22.513000 1.959719 26.173000
H 22.095000 3.400719 26.380000
O -11.990000 27.247281 28.824000
H -12.345000 27.024281 27.963000
H -12.697000 27.042281 29.436000
O -5.154000 49.802281 27.000000
H -5.027000 50.052281 27.915000
H -5.910000 50.313281 26.713000
O -10.619000 52.493281 25.716000
H -10.281000 53.287281 25.303000
H -10.564000 51.825281 25.033000
O -7.577000 52.799281 27.970000
H -7.702000 52.652281 27.032000
H -8.433000 53.090281 28.283000
O 39.245000 28.400281 28.364000
H 39.913000 28.183281 27.713000
H 39.670000 28.237281 29.207000
O 4.808000 22.389719 47.139000
H 4.110000 22.567719 47.769000
H 5.050000 23.250719 46.799000
O 18.416000 13.571719 42.702000
H 18.974000 13.366719 43.451000
H 18.150000 14.480719 42.842000
O 17.534000 7.255719 43.202000
H 16.899000 7.938719 42.991000
H 18.067000 7.630719 43.903000
O 6.917000 8.334719 44.583000
H 7.255000 8.226719 43.694000
H 6.215000 7.686719 44.653000
O 20.192000 6.796719 36.378000
H 20.935000 6.269719 36.083000
H 20.150000 7.521719 35.755000
O 11.328000 16.417719 46.607000
H 12.016000 15.764719 46.733000
H 10.861000 16.125719 45.824000
O 6.988000 11.847719 56.717000
H 7.719000 11.954719 57.326000
H 6.683000 12.738719 56.550000
O 8.790000 20.555719 43.005000
H 9.689000 20.308719 42.789000
H 8.719000 20.400719 43.947000
O 4.349000 20.346719 54.750000
H 4.733000 20.280719 55.624000
H 3.665000 19.677719 54.737000
O 7.792000 18.566719 41.657000
H 8.627000 18.100719 41.616000
H 7.983000 19.355719 42.164000
O 17.596000 20.531719 42.556000
H 18.546000 20.506719 42.442000
H 17.456000 21.157719 43.266000
O 2.965000 8.207719 52.413000
H 2.030000 8.294719 52.228000
H 3.371000 8.098719 51.553000
O 15.368000 4.845719 40.247000
H 16.025000 4.173719 40.065000
H 14.637000 4.630719 39.669000
O 12.783000 20.445719 53.627000
H 12.818000 19.701719 54.229000
H 11.894000 20.425719 53.272000
O 1.583000 16.662719 39.765000
H 2.446000 16.582719 40.171000
H 1.295000 17.547719 39.987000
O 7.706000 14.886719 41.955000
H 7.603000 13.979719 42.244000
H 7.617000 15.405719 42.754000
O 9.681000 18.479719 64.463000
H 8.943000 17.945719 64.756000
H 10.358000 18.337719 65.125000
O 27.958000 13.334719 38.788000
H 27.517000 13.146719 39.616000
H 27.518000 14.115719 38.453000
O 21.264000 25.460719 35.831000
H 21.281000 24.503719 35.814000
H 21.152000 25.682719 36.755000
O 11.707000 8.300719 43.192000
H 12.225000 9.002719 42.799000
H 12.347000 7.761719 43.657000
O 13.107000 9.879719 41.441000
H 12.515000 9.507719 40.788000
H 13.279000 10.768719 41.130000
O 3.202000 11.073719 51.311000
H 3.065000 10.150719 51.523000
H 3.454000 11.476719 52.143000
O 4.034000 19.961719 45.209000
H 4.492000 20.364719 45.946000
H 3.548000 20.680719 44.805000
O 15.152000 13.557719 52.434000
H 15.520000 14.397719 52.161000
H 14.281000 13.774719 52.767000
O 8.637000 5.370719 43.062000
H 9.122000 5.322719 42.238000
H 9.002000 6.133719 43.510000
O 14.659000 11.802719 36.006000
H 15.242000 12.251719 36.618000
H 13.978000 12.445719 35.806000
O 10.438000 18.138719 50.685000
H 10.274000 18.392719 49.776000
H 9.576000 17.905719 51.028000
O 25.817000 9.515719 56.177000
H 25.418000 10.090719 56.830000
H 25.201000 8.788719 56.090000
O 15.259000 13.444719 45.445000
H 15.109000 13.610719 44.514000
H 15.123000 12.502719 45.546000
O 24.279000 24.373719 36.223000
H 23.890000 24.285719 37.093000
H 24.488000 25.304719 36.146000
O 6.845000 11.757719 36.578000
H 7.641000 11.825719 36.050000
H 6.445000 10.932719 36.303000
O 13.575000 8.589719 48.246000
H 12.650000 8.541719 48.006000
H 13.750000 7.761719 48.694000
O 18.231000 24.314719 39.503000
H 19.081000 23.916719 39.692000
H 17.851000 24.487719 40.364000
O 5.728000 11.314719 47.243000
H 4.864000 10.940719 47.419000
H 6.307000 10.555719 47.170000
O 11.466000 11.339719 48.424000
H 11.776000 11.304719 47.519000
H 11.547000 12.260719 48.670000
O 7.327000 18.445719 53.002000
H 7.008000 17.677719 53.477000
H 7.075000 19.188719 53.550000
O 9.584000 8.947719 48.759000
H 9.915000 8.765719 49.639000
H 9.950000 9.803719 48.537000
O 12.232000 13.178719 35.679000
H 11.980000 12.346719 36.080000
H 11.478000 13.750719 35.821000
O 0.817000 14.776719 52.947000
H 0.705000 15.423719 52.251000
H 1.000000 15.296719 53.730000
O 5.578000 13.813719 40.359000
H 6.273000 14.275719 40.829000
H 5.154000 13.274719 41.026000
O 17.238000 10.529719 50.503000
H 17.957000 10.100719 50.040000
H 16.679000 10.878719 49.808000
O 12.222000 12.121719 38.656000
H 11.999000 12.994719 38.979000
H 11.505000 11.564719 38.958000
O 11.855000 21.320719 64.247000
H 12.149000 21.941719 64.913000
H 10.933000 21.535719 64.108000
O 15.455000 9.107719 42.691000
H 16.049000 9.858719 42.708000
H 14.708000 9.405719 42.172000
O 13.985000 19.744719 47.328000
H 14.379000 19.364719 48.113000
H 13.593000 20.564719 47.629000
O 11.149000 7.686719 46.937000
H 10.572000 7.414719 46.223000
H 10.559000 7.850719 47.673000
O 5.430000 14.349719 51.885000
H 5.011000 13.635719 52.368000
H 4.747000 15.015719 51.802000
O 6.457000 22.057719 42.248000
H 7.341000 21.836719 42.541000
H 6.570000 22.344719 41.342000
O 0.260000 8.460719 52.422000
H 0.064000 8.775719 51.540000
H -0.119000 7.581719 52.453000
O 15.806000 22.101719 36.571000
H 16.586000 21.998719 37.116000
H 16.036000 21.682719 35.741000
O 26.304000 17.957719 38.698000
H 25.508000 18.402719 38.988000
H 27.014000 18.548719 38.949000
O 12.197000 5.429719 41.366000
H 12.825000 4.957719 40.819000
H 12.629000 5.504719 42.217000
O 12.407000 17.206719 39.195000
H 12.095000 16.316719 39.362000
H 12.182000 17.371719 38.280000
O 2.555000 15.484719 43.869000
H 2.932000 14.811719 43.302000
H 3.066000 16.271719 43.681000
O 15.981000 6.994719 53.369000
H 16.874000 6.917719 53.707000
H 16.090000 7.101719 52.425000
O 8.345000 6.698719 51.933000
H 8.047000 6.401719 51.073000
H 9.076000 7.286719 51.743000
O 6.556000 16.897719 43.546000
H 5.654000 17.039719 43.260000
H 7.069000 17.538719 43.053000
O 5.779000 4.532719 47.211000
H 5.702000 5.170719 47.921000
H 6.473000 3.937719 47.497000
O 10.295000 17.614719 41.740000
H 10.832000 17.165719 41.088000
H 10.849000 18.327719 42.057000
O 5.538000 6.109719 45.062000
H 5.621000 5.567719 45.847000
H 5.641000 5.496719 44.334000
O 10.114000 14.903719 35.498000
H 9.570000 14.149719 35.729000
H 10.043000 15.490719 36.250000
O 11.817000 12.568719 52.147000
H 11.064000 12.892719 51.652000
H 12.136000 13.333719 52.626000
O 14.636000 14.574719 40.511000
H 13.836000 15.034719 40.258000
H 15.342000 15.182719 40.291000
O 0.938000 12.926719 46.986000
H 0.569000 13.774719 47.232000
H 1.872000 13.096719 46.866000
O 11.484000 21.885719 40.494000
H 12.125000 21.175719 40.532000
H 10.804000 21.563719 39.903000
O 10.929000 6.060719 63.526000
H 11.210000 5.293719 64.025000
H 11.569000 6.736719 63.745000
O 5.393000 12.383719 44.646000
H 4.854000 13.048719 45.074000
H 5.747000 11.862719 45.367000
O 5.845000 9.872719 41.062000
H 5.716000 9.567719 40.164000
H 5.033000 9.640719 41.513000
O 14.647000 10.863719 45.881000
H 15.106000 10.033719 46.011000
H 13.726000 10.654719 46.037000
O 15.944000 8.650719 46.756000
H 15.796000 8.016719 46.055000
H 15.139000 8.629719 47.273000
O 14.017000 14.677719 37.408000
H 13.325000 14.085719 37.114000
H 14.824000 14.173719 37.303000
O 5.049000 12.453719 60.969000
H 4.313000 12.170719 61.511000
H 5.748000 12.643719 61.594000
O 16.544000 16.914719 40.300000
H 16.240000 16.976719 39.395000
H 16.136000 17.659719 40.742000
O 15.980000 7.683719 40.066000
H 16.008000 6.741719 40.231000
H 15.576000 8.053719 40.851000
O 23.958000 18.103719 52.911000
H 23.732000 18.583719 53.707000
H 24.884000 17.884719 53.017000
O 9.917000 18.106719 48.129000
H 9.244000 17.530719 48.493000
H 10.457000 17.531719 47.587000
O 13.270000 23.428719 51.935000
H 13.039000 23.552719 52.856000
H 14.126000 23.847719 51.844000
O 14.948000 17.214719 43.951000
H 14.152000 17.690719 44.186000
H 14.652000 16.320719 43.778000
O 19.292000 15.649719 48.134000
H 18.626000 15.160719 47.650000
H 19.489000 15.099719 48.892000
O 12.534000 17.239719 53.207000
H 11.608000 17.268719 52.969000
H 12.979000 16.949719 52.410000
O 7.834000 11.940719 39.221000
H 7.517000 11.892719 38.320000
H 7.139000 12.396719 39.696000
O 8.097000 13.126719 47.313000
H 8.310000 13.537719 48.151000
H 7.349000 12.560719 47.508000
O 12.143000 5.204719 46.086000
H 11.317000 4.721719 46.088000
H 12.044000 5.853719 46.782000
O 2.748000 14.629719 55.027000
H 2.912000 15.279719 54.344000
H 3.081000 15.033719 55.828000
O 0.213000 21.933719 40.716000
H 0.138000 22.199719 39.800000
H 0.932000 22.462719 41.062000
O 0.619000 9.039719 44.750000
H 0.844000 9.739719 45.363000
H 1.400000 8.487719 44.719000
O 14.982000 17.800719 38.054000
H 14.189000 17.313719 38.281000
H 14.681000 18.698719 37.920000
O 12.693000 13.640719 49.451000
H 12.700000 14.482719 49.906000
H 13.381000 13.130719 49.878000
O 13.439000 5.359719 43.917000
H 12.807000 5.223719 44.624000
H 13.642000 4.478719 43.604000
O 2.865000 22.794719 48.928000
H 2.195000 23.009719 48.278000
H 2.745000 21.859719 49.096000
O 3.601000 9.587719 47.296000
H 3.413000 9.065719 48.076000
H 3.459000 8.987719 46.564000
O 12.838000 14.541719 53.581000
H 12.336000 14.208719 54.325000
H 12.683000 15.486719 53.590000
O 15.556000 4.261719 53.802000
H 14.681000 3.976719 53.537000
H 15.655000 5.127719 53.408000
O 1.831000 17.642719 48.784000
H 2.188000 17.280719 47.973000
H 0.920000 17.347719 48.799000
O 11.999000 10.348719 46.148000
H 11.261000 10.866719 45.827000
H 11.597000 9.561719 46.515000
O 10.162000 7.655719 40.929000
H 10.647000 7.889719 41.720000
H 10.754000 7.076719 40.447000
O 28.858000 6.672719 45.459000
H 29.393000 7.417719 45.183000
H 29.470000 5.937719 45.496000
O 0.578000 12.214719 51.965000
H 1.427000 12.001719 51.579000
H 0.669000 13.119719 52.262000
O 11.514000 13.943719 42.681000
H 11.111000 14.534719 43.317000
H 10.996000 13.140719 42.737000
O 18.752000 17.924719 52.922000
H 19.326000 18.229719 52.219000
H 18.911000 16.982719 52.971000
O -0.048000 4.458719 40.432000
H -0.589000 5.242719 40.537000
H -0.537000 3.911719 39.817000
O 10.301000 12.356719 45.749000
H 10.972000 12.937719 46.107000
H 9.490000 12.637719 46.173000
O 6.819000 21.092719 53.947000
H 7.057000 21.428719 53.083000
H 5.862000 21.070719 53.942000
O 19.894000 19.222719 50.481000
H 19.636000 19.981719 51.005000
H 20.847000 19.189719 50.559000
O 9.712000 17.159719 53.632000
H 8.930000 17.706719 53.557000
H 9.388000 16.322719 53.965000
O 16.557000 13.370719 62.735000
H 17.001000 13.846719 63.437000
H 15.651000 13.292719 63.033000
O 14.299000 14.714719 43.181000
H 13.436000 14.301719 43.166000
H 14.619000 14.635719 42.282000
O 0.064000 8.441719 39.948000
H -0.451000 8.716719 39.189000
H -0.490000 7.801719 40.395000
O 0.174000 8.986719 49.692000
H 0.563000 9.434719 48.941000
H -0.210000 8.190719 49.325000
O 4.446000 6.428719 58.084000
H 4.077000 7.271719 57.821000
H 4.803000 6.060719 57.275000
O 14.962000 11.173719 49.015000
H 14.313000 10.482719 49.154000
H 14.987000 11.291719 48.066000
O 10.093000 8.590719 51.508000
H 10.058000 9.497719 51.811000
H 11.028000 8.396719 51.437000
O 27.811000 23.522719 64.436000
H 27.644000 22.885719 63.741000
H 27.258000 23.234719 65.163000
O 5.343000 24.787719 46.071000
H 5.667000 24.736719 45.172000
H 5.916000 25.425719 46.497000
O 10.351000 15.674719 44.292000
H 9.462000 15.391719 44.508000
H 10.230000 16.398719 43.678000
O 8.029000 14.674719 45.163000
H 7.448000 15.362719 45.487000
H 7.909000 13.949719 45.776000
O 4.128000 12.248719 53.603000
H 4.391000 11.628719 54.283000
H 3.732000 12.976719 54.081000
O 12.848000 16.093719 59.498000
H 12.044000 15.578719 59.567000
H 13.119000 15.994719 58.586000
O 4.724000 7.715719 39.149000
H 5.041000 7.175719 38.425000
H 3.884000 7.325719 39.389000
O 18.947000 9.272719 48.952000
H 18.627000 8.524719 49.457000
H 19.901000 9.198719 48.994000
O 29.330000 18.265719 58.172000
H 28.905000 17.814719 57.442000
H 28.620000 18.447719 58.788000
O 3.319000 10.847719 35.276000
H 2.866000 10.006719 35.214000
H 2.718000 11.408719 35.766000
O 0.853000 10.174719 47.366000
H 1.784000 9.952719 47.378000
H 0.835000 11.131719 47.390000
O 17.738000 13.724719 46.811000
H 17.630000 12.853719 47.195000
H 16.913000 13.889719 46.355000
O 18.262000 21.586719 37.645000
H 18.105000 20.703719 37.312000
H 19.130000 21.817719 37.316000
O 19.712000 18.639719 45.683000
H 19.897000 17.888719 45.119000
H 18.757000 18.662719 45.747000
O 12.967000 19.662719 40.988000
H 13.004000 18.868719 40.455000
H 13.859000 19.771719 41.319000
O 28.269000 9.860719 47.351000
H 29.208000 9.911719 47.526000
H 28.192000 9.999719 46.407000
O 29.178000 16.645719 51.771000
H 28.381000 16.159719 51.984000
H 29.096000 16.841719 50.837000
O 6.245000 5.818719 42.054000
H 7.103000 5.962719 42.451000
H 6.275000 6.310719 41.233000
O 11.643000 14.767719 40.097000
H 11.376000 14.518719 40.982000
H 10.831000 14.760719 39.591000
O 10.013000 10.897719 39.737000
H 9.952000 10.973719 40.690000
H 9.179000 11.240719 39.416000
O 7.609000 16.679719 48.996000
H 7.026000 16.596719 48.241000
H 7.656000 15.796719 49.362000
O 11.240000 18.201719 36.617000
H 10.945000 19.091719 36.813000
H 12.036000 18.321719 36.099000
O 25.408000 22.718719 44.426000
H 25.022000 23.543719 44.718000
H 26.326000 22.774719 44.692000
O 12.217000 23.333719 36.092000
H 11.743000 24.013719 35.614000
H 12.937000 23.798719 36.519000
O 12.766000 18.496719 45.134000
H 12.182000 17.840719 45.515000
H 13.131000 18.959719 45.888000
O 7.777000 8.383719 42.027000
H 8.504000 8.293719 41.411000
H 7.179000 9.000719 41.605000
O 13.364000 18.917719 65.120000
H 13.088000 19.800719 64.877000
H 13.347000 18.425719 64.299000
O 5.972000 16.980719 46.362000
H 5.067000 17.293719 46.342000
H 6.325000 17.213719 45.503000
O 22.418000 19.311719 46.253000
H 22.797000 18.705719 45.616000
H 21.473000 19.177719 46.178000
O 9.967000 11.839719 42.560000
H 10.163000 11.668719 43.481000
H 9.027000 12.017719 42.544000
O 7.221000 9.104719 47.198000
H 7.338000 8.678719 46.349000
H 8.111000 9.235719 47.525000
O 3.993000 17.956719 37.527000
H 3.961000 18.684719 38.148000
H 4.096000 18.375719 36.672000
O 7.120000 18.895719 39.202000
H 7.305000 18.508719 40.058000
H 7.038000 18.145719 38.613000
O 2.366000 20.145719 49.164000
H 3.286000 19.892719 49.089000
H 1.880000 19.359719 48.913000
O 5.822000 7.043719 48.408000
H 6.469000 6.729719 49.040000
H 6.291000 7.695719 47.888000
O 12.898000 13.815719 46.793000
H 12.922000 13.687719 47.741000
H 13.801000 13.673719 46.509000
O 14.074000 20.691719 38.364000
H 14.771000 20.665719 39.019000
H 14.490000 21.064719 37.586000
O 9.413000 14.587719 54.050000
H 10.265000 14.309719 54.389000
H 8.778000 14.205719 54.657000
O 15.618000 18.909719 41.890000
H 15.603000 18.315719 42.641000
H 16.380000 19.467719 42.041000
O 4.452000 6.492719 54.949000
H 4.887000 7.001719 54.265000
H 3.683000 7.011719 55.183000
O 14.775000 19.573719 51.914000
H 13.904000 19.490719 52.303000
H 15.343000 19.056719 52.486000
O 2.448000 26.259719 43.348000
H 2.384000 25.669719 44.099000
H 3.331000 26.118719 43.007000
O 17.675000 10.589719 46.802000
H 18.344000 10.160719 47.335000
H 16.997000 9.923719 46.685000
O 11.483000 3.765719 64.692000
H 12.383000 3.441719 64.709000
H 10.944000 2.975719 64.643000
O 1.767000 11.021719 41.935000
H 1.641000 11.014719 40.986000
H 0.933000 10.713719 42.291000
O 14.061000 6.362719 49.506000
H 13.606000 5.528719 49.386000
H 13.633000 6.763719 50.262000
O 18.159000 18.050719 48.653000
H 18.818000 18.489719 49.192000
H 18.480000 17.153719 48.565000
O 13.969000 16.765719 63.085000
H 13.423000 17.009719 62.338000
H 14.748000 17.315719 63.002000
O 10.860000 24.089719 38.854000
H 11.152000 23.762719 38.003000
H 11.098000 23.397719 39.471000
O 10.694000 20.512719 52.119000
H 10.863000 19.641719 51.759000
H 11.039000 21.115719 51.461000
O 7.151000 12.295719 42.443000
H 6.815000 12.434719 43.328000
H 6.549000 11.660719 42.054000
O 3.544000 8.712719 42.450000
H 2.908000 8.021719 42.265000
H 3.010000 9.483719 42.644000
O 19.506000 20.003719 39.937000
H 19.306000 19.114719 39.645000
H 19.270000 20.559719 39.195000
O 7.388000 14.055719 49.816000
H 6.685000 13.887719 50.443000
H 8.192000 13.958719 50.326000
O 2.742000 17.511719 45.856000
H 1.946000 17.322719 45.360000
H 3.100000 18.298719 45.446000
O 7.035000 19.154719 50.456000
H 7.120000 18.817719 51.348000
H 7.081000 18.376719 49.900000
O 3.702000 13.012719 42.324000
H 2.954000 12.421719 42.234000
H 4.212000 12.646719 43.046000
O 22.430000 19.157719 50.722000
H 23.018000 18.739719 51.352000
H 22.947000 19.870719 50.347000
O 9.390000 13.239719 51.429000
H 9.369000 13.845719 52.170000
H 9.053000 12.415719 51.783000
O 4.960000 19.948719 42.586000
H 5.559000 20.669719 42.393000
H 4.898000 19.936719 43.541000
O 9.373000 14.199719 38.578000
H 8.832000 13.422719 38.722000
H 8.776000 14.935719 38.708000
O 5.168000 20.174719 48.613000
H 5.815000 20.188719 49.319000
H 5.242000 21.035719 48.203000
O 9.311000 8.233719 64.232000
H 9.916000 7.508719 64.074000
H 8.708000 7.902719 64.898000
O 1.669000 12.383719 37.280000
H 1.519000 11.814719 38.035000
H 2.348000 12.992719 37.569000
O 8.961000 21.154719 39.451000
H 9.009000 21.214719 38.497000
H 8.525000 20.319719 39.618000
O 15.345000 19.403719 59.400000
H 16.217000 19.252719 59.764000
H 14.762000 19.389719 60.159000
O 19.166000 11.004719 63.445000
H 19.454000 11.405719 62.625000
H 18.239000 11.235719 63.512000
O 12.545000 8.083719 64.238000
H 13.156000 8.746719 63.917000
H 11.982000 8.553719 64.853000
O 19.209000 14.949719 53.139000
H 18.435000 14.602719 53.583000
H 19.857000 15.055719 53.836000
O 7.163000 13.011719 62.445000
H 7.498000 12.192719 62.812000
H 7.790000 13.675719 62.730000
O 8.692000 4.688719 62.724000
H 8.417000 4.187719 63.493000
H 9.414000 5.232719 63.037000
O 16.157000 8.347719 63.053000
H 15.921000 7.920719 63.877000
H 15.629000 7.900719 62.392000
O 2.530000 21.503719 59.437000
H 3.279000 21.067719 59.030000
H 2.535000 21.194719 60.343000
O 3.225000 14.744719 62.003000
H 2.644000 15.009719 62.716000
H 3.227000 13.787719 62.037000
O 8.801000 16.019719 57.619000
H 9.429000 15.439719 58.050000
H 8.168000 16.237719 58.303000
O 24.920000 10.842719 63.632000
H 25.109000 10.863719 64.570000
H 25.095000 9.938719 63.371000
O 19.253000 21.651719 51.742000
H 18.439000 22.064719 51.454000
H 19.207000 21.670719 52.697000
O 16.422000 11.204719 59.105000
H 16.310000 10.305719 58.795000
H 16.062000 11.747719 58.404000
O 12.643000 13.360719 57.925000
H 13.490000 13.333719 57.480000
H 12.815000 12.989719 58.790000
O 8.708000 14.939719 63.092000
H 9.417000 15.020719 63.729000
H 9.007000 15.440719 62.333000
O 5.515000 25.499719 57.017000
H 4.629000 25.151719 57.119000
H 6.084000 24.816719 57.374000
O 11.843000 10.526719 54.925000
H 12.782000 10.439719 55.089000
H 11.756000 10.438719 53.976000
O 16.516000 16.884719 35.371000
H 15.646000 17.005719 35.752000
H 16.499000 17.401719 34.565000
O 17.571000 23.241719 56.787000
H 17.450000 22.348719 56.462000
H 16.814000 23.396719 57.351000
O 3.311000 8.555719 56.930000
H 3.942000 9.121719 56.487000
H 2.689000 8.307719 56.246000
O 15.408000 4.619719 64.823000
H 15.286000 5.550719 65.011000
H 15.930000 4.603719 64.020000
O 16.772000 20.915719 55.853000
H 16.595000 20.018719 56.136000
H 16.085000 21.106719 55.215000
O 10.878000 9.430719 57.870000
H 10.730000 8.537719 57.560000
H 11.544000 9.339719 58.552000
O 2.545000 5.348719 61.370000
H 1.947000 5.718719 62.018000
H 3.245000 5.996719 61.292000
O 9.278000 16.313719 60.979000
H 9.650000 15.713719 60.333000
H 8.414000 16.535719 60.632000
O 1.125000 6.611719 63.366000
H 0.963000 7.520719 63.113000
H 0.254000 6.249719 63.529000
O 9.616000 12.406719 61.110000
H 10.341000 12.141719 61.677000
H 8.863000 12.470719 61.698000
O 0.337000 22.763719 37.999000
H 0.757000 22.114719 37.434000
H 0.840000 23.565719 37.859000
O 18.334000 12.979719 60.386000
H 17.824000 12.277719 59.981000
H 17.754000 13.341719 61.056000
O 21.004000 9.707719 60.850000
H 20.142000 9.825719 60.453000
H 21.305000 10.595719 61.042000
O 9.607000 22.348719 63.226000
H 8.667000 22.514719 63.292000
H 9.758000 22.188719 62.294000
O 15.354000 18.832719 56.575000
H 14.434000 18.659719 56.376000
H 15.368000 19.003719 57.517000
O 8.094000 19.514719 59.587000
H 7.524000 19.341719 60.336000
H 8.751000 20.125719 59.921000
O 14.461000 7.161719 61.118000
H 13.865000 6.414719 61.183000
H 13.949000 7.838719 60.677000
O 1.404000 20.922719 36.143000
H 1.383000 21.476719 35.363000
H 0.721000 20.269719 35.993000
O 13.553000 23.654719 56.803000
H 12.707000 23.741719 57.242000
H 14.011000 22.974719 57.297000
O 0.144000 4.631719 59.918000
H 0.878000 4.897719 60.473000
H 0.470000 4.735719 59.024000
O 4.426000 3.966719 54.024000
H 4.604000 4.855719 54.331000
H 4.837000 3.399719 54.677000
O 15.387000 14.760719 60.230000
H 14.623000 15.336719 60.211000
H 15.627000 14.711719 61.156000
O 6.598000 3.522719 37.648000
H 7.311000 4.062719 37.991000
H 6.350000 2.958719 38.381000
O 16.007000 17.892719 53.660000
H 16.928000 18.149719 53.632000
H 15.673000 18.281719 54.468000
O 7.627000 9.162719 58.735000
H 7.493000 9.037719 57.796000
H 8.490000 9.570719 58.802000
O 13.052000 23.249719 62.618000
H 12.575000 22.504719 62.983000
H 12.615000 23.431719 61.786000
O 26.778000 11.964719 61.800000
H 27.380000 12.421719 62.387000
H 26.150000 11.537719 62.384000
O 10.532000 24.884719 64.468000
H 10.816000 25.608719 63.911000
H 10.293000 24.189719 63.855000
O 5.024000 10.221719 55.791000
H 5.458000 10.940719 56.250000
H 5.662000 9.507719 55.804000
O 7.808000 7.404719 36.850000
H 6.880000 7.307719 36.636000
H 8.029000 6.602719 37.325000
O 6.384000 6.909719 59.990000
H 5.599000 6.600719 59.538000
H 6.441000 7.838719 59.764000
O 15.985000 18.482719 63.031000
H 16.514000 18.489719 62.233000
H 15.887000 19.406719 63.262000
O 11.360000 4.638719 59.369000
H 11.812000 5.018719 60.122000
H 11.987000 4.014719 59.003000
O 12.775000 10.223719 52.368000
H 12.524000 11.093719 52.056000
H 13.728000 10.260719 52.440000
O 6.243000 16.079719 53.779000
H 6.176000 15.366719 53.144000
H 5.359000 16.441719 53.828000
O 13.209000 18.343719 60.857000
H 13.153000 17.663719 60.186000
H 12.299000 18.582719 61.033000
O 7.805000 6.336719 57.564000
H 7.391000 6.495719 58.412000
H 7.430000 7.001719 56.986000
O 1.493000 7.355719 55.233000
H 1.452000 7.355719 54.276000
H 1.012000 6.570719 55.493000
O 10.789000 10.155719 35.553000
H 10.177000 9.633719 35.033000
H 10.799000 9.730719 36.410000
O 15.052000 8.614719 37.715000
H 14.923000 9.520719 37.996000
H 15.437000 8.179719 38.476000
O 11.754000 11.917719 62.737000
H 11.823000 11.183719 63.348000
H 12.239000 12.627719 63.158000
O 7.045000 14.366719 55.811000
H 6.824000 15.000719 55.129000
H 7.723000 14.799719 56.330000
O 12.821000 18.404719 55.646000
H 12.921000 17.857719 54.868000
H 11.891000 18.342719 55.866000
O 13.450000 9.553719 59.265000
H 14.259000 9.338719 58.801000
H 13.619000 10.408719 59.661000
O 8.069000 10.587719 63.465000
H 8.609000 9.823719 63.263000
H 7.277000 10.224719 63.861000
O 10.517000 3.856719 54.957000
H 11.024000 4.290719 55.644000
H 11.159000 3.323719 54.487000
O 4.485000 13.748719 37.785000
H 5.082000 13.110719 37.393000
H 4.799000 13.850719 38.683000
O 4.638000 7.454719 63.790000
H 4.279000 7.806719 62.975000
H 5.221000 6.748719 63.510000
O 18.107000 7.092719 62.078000
H 18.698000 7.679719 61.608000
H 17.395000 7.658719 62.379000
O 10.079000 8.527719 38.015000
H 9.265000 8.264719 37.585000
H 9.796000 8.995719 38.800000
O 11.422000 13.363719 55.523000
H 11.706000 12.456719 55.414000
H 11.625000 13.570719 56.436000
O 12.273000 22.248719 60.048000
H 11.850000 22.814719 59.403000
H 13.020000 21.870719 59.584000
O 5.571000 9.979719 60.161000
H 5.474000 10.881719 60.465000
H 6.434000 9.957719 59.746000
O 28.684000 5.455719 63.432000
H 29.330000 4.750719 63.458000
H 28.149000 5.320719 64.214000
O 2.620000 15.638719 36.514000
H 2.830000 16.443719 36.988000
H 3.399000 15.090719 36.615000
O 7.159000 16.579719 64.819000
H 7.569000 15.887719 64.300000
H 6.365000 16.803719 64.334000
O 5.636000 9.916719 64.480000
H 4.856000 10.416719 64.717000
H 5.300000 9.065719 64.198000
O 8.470000 10.665719 52.281000
H 7.537000 10.520719 52.124000
H 8.621000 10.326719 53.163000
O 10.472000 14.441719 59.324000
H 9.919000 13.825719 59.804000
H 11.116000 13.889719 58.879000
O 16.685000 20.862719 64.361000
H 16.655000 21.379719 63.556000
H 17.602000 20.597719 64.442000
O 26.327000 15.213719 64.727000
H 25.372000 15.279719 64.717000
H 26.558000 15.209719 65.656000
O 12.652000 5.277719 52.821000
H 11.783000 5.117719 52.452000
H 12.537000 5.161719 53.764000
O 14.529000 21.885719 58.582000
H 15.010000 21.093719 58.820000
H 14.852000 22.553719 59.188000
O 13.224000 12.703719 60.448000
H 12.639000 12.818719 61.197000
H 13.970000 13.273719 60.637000
O 10.196000 18.123719 56.285000
H 10.049000 17.687719 55.446000
H 9.796000 17.540719 56.931000
O 7.220000 21.881719 50.114000
H 7.271000 20.940719 50.278000
H 6.288000 22.088719 50.190000
O 10.757000 18.625719 62.008000
H 10.245000 17.986719 61.511000
H 10.433000 18.546719 62.905000
O 14.847000 21.868719 54.317000
H 14.678000 22.770719 54.586000
H 13.980000 21.501719 54.146000
O 9.915000 21.149719 60.923000
H 10.802000 21.413719 60.675000
H 10.039000 20.360719 61.450000
O 7.050000 3.994719 64.830000
H 6.728000 3.946719 65.730000
H 6.320000 3.676719 64.298000
O 4.086000 20.253719 57.351000
H 3.455000 19.568719 57.571000
H 3.557000 20.954719 56.970000
O 2.735000 18.046719 63.789000
H 2.242000 17.226719 63.797000
H 2.652000 18.386719 64.679000
O 16.113000 15.933719 51.940000
H 15.980000 16.711719 52.483000
H 16.182000 16.272719 51.048000
O 19.484000 19.015719 58.308000
H 18.888000 18.369719 57.929000
H 20.101000 18.497719 58.826000
O 8.747000 10.095719 55.043000
H 9.656000 10.165719 55.333000
H 8.298000 10.818719 55.482000
O 3.938000 12.977719 56.720000
H 3.478000 12.249719 57.140000
H 3.251000 13.464719 56.265000
O 7.476000 21.443719 45.525000
H 8.107000 22.161719 45.564000
H 6.654000 21.828719 45.828000
O 7.046000 22.629719 63.661000
H 6.620000 21.801719 63.439000
H 6.386000 23.297719 63.475000
O 13.650000 13.928719 63.465000
H 13.833000 14.850719 63.282000
H 13.240000 13.932719 64.330000
O 12.425000 16.320719 50.435000
H 11.653000 16.874719 50.554000
H 12.859000 16.676719 49.660000
O 19.575000 20.259719 64.368000
H 19.784000 19.923719 63.497000
H 20.015000 19.657719 64.969000
O 0.072000 13.758719 59.971000
H 0.483000 13.201719 59.311000
H -0.055000 13.183719 60.726000
O 15.866000 7.287719 35.584000
H 16.575000 6.744719 35.928000
H 15.525000 7.751719 36.350000
O 3.764000 8.017719 61.428000
H 2.939000 8.394719 61.122000
H 4.438000 8.470719 60.921000
O 5.746000 18.830719 60.906000
H 5.825000 17.985719 61.348000
H 4.827000 18.879719 60.643000
O 6.871000 8.108719 55.866000
H 7.525000 8.695719 55.487000
H 6.475000 7.670719 55.112000
O 12.770000 5.166719 61.432000
H 12.131000 5.230719 62.142000
H 13.326000 4.426719 61.674000
O 5.201000 3.743719 59.146000
H 5.628000 3.970719 59.972000
H 4.606000 4.473719 58.975000
O 2.150000 18.135719 57.575000
H 1.305000 18.222719 58.017000
H 2.509000 17.311719 57.904000
O 14.030000 25.225719 37.134000
H 14.964000 25.170719 37.335000
H 13.617000 25.443719 37.970000
O 10.331000 3.407719 44.526000
H 9.787000 2.906719 45.134000
H 9.748000 4.087719 44.187000
O 28.249000 26.252719 47.806000
H 27.833000 26.273719 48.668000
H 29.187000 26.209719 47.993000
O 18.746000 22.995719 46.638000
H 18.439000 22.159719 46.991000
H 19.589000 23.141719 47.068000
O 17.887000 20.412719 47.312000
H 17.319000 20.227719 46.564000
H 18.200000 19.553719 47.595000
O 2.968000 22.088719 44.234000
H 2.881000 22.294719 43.303000
H 3.022000 22.941719 44.664000
O 5.881000 20.681719 37.435000
H 6.671000 21.092719 37.084000
H 6.196000 19.889719 37.870000
O 1.078000 20.902719 51.446000
H 1.615000 20.826719 50.657000
H 1.590000 21.460719 52.032000
O 2.748000 22.672719 41.496000
H 3.189000 23.247719 40.871000
H 3.125000 21.807719 41.335000
O 14.857000 22.479719 44.110000
H 14.548000 22.848719 43.283000
H 15.740000 22.835719 44.217000
O 9.135000 23.686719 49.347000
H 8.416000 23.055719 49.379000
H 9.871000 23.232719 49.759000
O 10.419000 23.737719 42.337000
H 10.708000 22.913719 41.944000
H 10.509000 23.598719 43.280000
O 8.487000 25.601719 41.947000
H 9.327000 25.142719 41.950000
H 8.138000 25.458719 41.067000
O 1.712000 25.142719 38.274000
H 1.998000 25.760719 37.601000
H 2.340000 25.256719 38.987000
O 12.386000 25.942719 50.418000
H 12.730000 25.180719 50.884000
H 13.066000 26.161719 49.781000
O 16.325000 21.191719 40.003000
H 16.792000 21.544719 39.245000
H 17.007000 21.044719 40.658000
O 27.629000 21.990719 38.375000
H 28.441000 22.488719 38.278000
H 27.173000 22.110719 37.542000
O 15.654000 24.509719 52.206000
H 16.310000 24.803719 51.574000
H 15.950000 24.866719 53.043000
O 8.069000 21.621719 36.286000
H 7.650000 22.064719 35.548000
H 8.898000 21.298719 35.933000
O 9.650000 26.427719 49.391000
H 10.529000 26.314719 49.754000
H 9.294000 25.540719 49.346000
O 15.917000 20.260719 45.449000
H 15.156000 20.097719 46.006000
H 15.611000 20.901719 44.807000
O 6.601000 24.296719 43.683000
H 6.606000 23.438719 43.259000
H 7.327000 24.769719 43.277000
O 3.966000 19.951719 35.667000
H 3.210000 20.297719 36.141000
H 4.721000 20.214719 36.194000
O 14.748000 23.480719 41.470000
H 15.151000 22.725719 41.042000
H 15.209000 24.236719 41.108000
O 11.370000 22.515719 50.295000
H 11.995000 22.830719 50.948000
H 11.895000 22.383719 49.505000
O 2.822000 24.602719 45.400000
H 2.221000 24.217719 46.038000
H 3.638000 24.728719 45.885000
O 12.497000 26.177719 39.117000
H 12.143000 26.872719 39.672000
H 11.822000 25.499719 39.121000
O 14.234000 26.317719 44.086000
H 14.962000 26.804719 43.699000
H 13.724000 26.012719 43.335000
O 17.525000 25.124719 42.018000
H 18.272000 25.356719 42.569000
H 16.961000 25.897719 42.039000
O 11.478000 20.987719 37.680000
H 12.380000 20.722719 37.859000
H 11.560000 21.771719 37.137000
O 9.704000 7.354719 44.566000
H 9.054000 8.050719 44.471000
H 10.427000 7.622719 43.998000
O 9.039000 24.099719 46.458000
H 9.947000 24.181719 46.168000
H 9.095000 24.041719 47.411000
O 11.345000 24.199719 44.885000
H 12.081000 23.592719 44.969000
H 11.753000 25.047719 44.706000
O 5.063000 26.034719 42.175000
H 5.580000 25.391719 42.659000
H 5.457000 26.877719 42.400000
O 28.118000 23.637719 44.845000
H 28.799000 24.191719 44.463000
H 28.306000 23.637719 45.783000
O 3.554000 16.620719 53.004000
H 3.113000 17.304719 53.508000
H 3.694000 17.010719 52.141000
O 12.666000 22.305719 47.830000
H 13.331000 22.986719 47.722000
H 12.405000 22.081719 46.937000
O 5.924000 25.884719 38.534000
H 5.770000 25.347719 37.756000
H 6.828000 25.692719 38.783000
O 28.458000 22.694719 47.129000
H 28.907000 22.062719 46.567000
H 28.208000 22.191719 47.903000
O 1.767000 5.674719 49.660000
H 2.135000 4.791719 49.618000
H 0.845000 5.560719 49.430000
O 15.041000 4.773719 56.458000
H 15.867000 5.151719 56.758000
H 15.182000 4.594719 55.528000
O 4.688000 3.832719 51.192000
H 3.798000 3.726719 50.854000
H 4.568000 4.109719 52.100000
O 14.760000 25.366719 63.965000
H 14.230000 25.380719 64.762000
H 14.423000 24.623719 63.465000
O 2.757000 25.447719 50.816000
H 3.022000 24.711719 50.264000
H 3.552000 25.687719 51.293000
O 9.435000 24.625719 54.510000
H 9.122000 24.652719 53.605000
H 8.839000 24.020719 54.951000
O 10.240000 20.861719 56.836000
H 9.538000 21.411719 56.489000
H 9.975000 19.967719 56.620000
O 6.783000 22.604719 39.700000
H 7.633000 22.203719 39.521000
H 6.414000 22.782719 38.835000
O 16.849000 22.561719 49.165000
H 16.885000 21.677719 48.801000
H 16.628000 22.432719 50.088000
O 9.028000 19.236719 46.039000
H 9.306000 18.922719 46.899000
H 8.316000 19.849719 46.225000
O -0.237000 8.777719 58.035000
H -1.169000 8.725719 58.248000
H -0.124000 8.168719 57.305000
O 3.907000 24.882719 40.024000
H 4.055000 25.226719 40.905000
H 4.707000 25.097719 39.544000
O 8.678000 25.433719 38.927000
H 9.043000 26.314719 39.013000
H 9.442000 24.856719 38.925000
O 12.733000 25.322719 42.128000
H 11.911000 24.835719 42.191000
H 13.384000 24.664719 41.886000
O 23.336000 21.782719 47.266000
H 22.947000 21.079719 46.746000
H 23.598000 21.359719 48.084000
O 7.339000 5.064719 49.832000
H 6.762000 4.562719 50.408000
H 7.610000 4.438719 49.160000
O 9.669000 4.328719 40.711000
H 10.575000 4.615719 40.824000
H 9.739000 3.408719 40.457000
O 3.558000 7.835719 49.747000
H 2.936000 7.108719 49.701000
H 4.305000 7.545719 49.225000
O 12.437000 21.636719 45.289000
H 11.931000 21.123719 44.660000
H 13.279000 21.783719 44.857000
O 17.098000 26.047719 50.443000
H 16.619000 26.870719 50.349000
H 17.209000 25.730719 49.547000
O 6.296000 7.738719 53.166000
H 5.947000 8.276719 52.455000
H 7.056000 7.298719 52.785000
O 0.915000 23.895719 47.169000
H 1.097000 24.616719 47.772000
H -0.031000 23.765719 47.229000
O 14.425000 25.273719 46.529000
H 14.373000 25.702719 45.675000
H 15.338000 24.996719 46.603000
O 2.910000 22.450719 53.171000
H 3.588000 21.949719 53.623000
H 2.901000 23.297719 53.616000
O 27.977000 25.775719 41.381000
H 27.163000 26.085719 41.777000
H 27.894000 24.822719 41.374000
O 16.353000 21.896719 51.851000
H 15.738000 21.161719 51.849000
H 15.866000 22.614719 52.254000
O 15.305000 18.591719 49.241000
H 16.237000 18.379719 49.195000
H 15.179000 18.927719 50.128000
O 4.050000 19.611719 39.837000
H 4.382000 19.839719 40.706000
H 4.671000 20.014719 39.230000
O 21.118000 23.420719 47.630000
H 21.016000 23.221719 48.561000
H 21.814000 22.834719 47.334000
O 11.360000 19.830719 43.177000
H 12.018000 19.886719 42.484000
H 11.797000 19.355719 43.885000
O 3.393000 5.765719 42.505000
H 3.340000 4.852719 42.788000
H 4.315000 5.997719 42.613000
O 15.154000 25.960719 40.402000
H 15.726000 26.471719 39.829000
H 14.303000 26.393719 40.339000
O 17.795000 16.315719 42.866000
H 17.395000 16.366719 41.998000
H 17.161000 16.733719 43.448000
O 28.071000 6.674719 41.000000
H 27.800000 6.832719 41.905000
H 27.297000 6.301719 40.580000
O 6.186000 5.613719 62.275000
H 6.433000 6.070719 61.471000
H 7.019000 5.407719 62.700000
O 7.983000 3.834719 55.846000
H 8.839000 4.088719 55.500000
H 7.839000 4.423719 56.586000
O 20.314000 4.758719 58.224000
H 19.901000 4.026719 57.766000
H 21.157000 4.413719 58.518000
O 6.835000 23.720719 58.724000
H 6.954000 22.776719 58.830000
H 6.061000 23.924719 59.248000
O 23.522000 19.158719 55.740000
H 23.629000 19.966719 55.238000
H 22.627000 18.876719 55.553000
O 2.636000 24.860719 64.572000
H 3.275000 25.567719 64.657000
H 1.836000 25.212719 64.963000
O 20.043000 4.937719 62.531000
H 19.403000 5.573719 62.210000
H 20.872000 5.415719 62.540000
O 15.771000 24.833719 58.632000
H 16.388000 25.533719 58.846000
H 15.494000 24.489719 59.482000
O 5.274000 23.038719 51.946000
H 5.465000 23.964719 52.100000
H 4.413000 22.902719 52.342000
O 5.180000 6.195719 36.813000
H 5.535000 5.307719 36.853000
H 4.686000 6.219719 35.993000
O 28.601000 19.473719 38.280000
H 28.213000 20.321719 38.062000
H 29.076000 19.216719 37.489000
O 11.112000 23.308719 57.798000
H 10.343000 23.847719 57.613000
H 10.823000 22.411719 57.626000
O 4.168000 23.750719 60.064000
H 4.366000 23.666719 60.997000
H 3.508000 23.077719 59.897000
O 8.151000 22.478719 55.949000
H 7.677000 22.467719 56.780000
H 7.635000 21.916719 55.371000
O 4.869000 24.355719 62.880000
H 4.937000 25.123719 62.312000
H 3.980000 24.395719 63.232000
O 6.050000 24.111719 36.445000
H 5.287000 24.493719 36.012000
H 6.799000 24.553719 36.046000
O 16.659000 4.586719 62.450000
H 17.132000 5.418719 62.435000
H 16.960000 4.125719 61.667000
O 12.477000 24.143719 54.295000
H 12.829000 23.880719 55.145000
H 11.527000 24.104719 54.406000
O 3.259000 25.006719 54.315000
H 3.130000 25.036719 55.263000
H 3.128000 25.909719 54.026000
O 1.389000 22.533719 64.033000
H 1.942000 23.225719 64.393000
H 0.816000 22.982719 63.412000
O 4.956000 16.693719 63.155000
H 4.530000 16.009719 62.639000
H 4.267000 17.339719 63.312000
O 9.447000 3.121719 60.461000
H 10.078000 3.666719 59.990000
H 9.227000 3.629719 61.242000
O 5.269000 20.493719 63.231000
H 4.843000 20.171719 64.026000
H 5.609000 19.707719 62.805000
O 19.207000 24.801719 53.674000
H 19.811000 24.327719 54.247000
H 18.337000 24.534719 53.970000
O 12.828000 26.463719 56.592000
H 13.025000 25.561719 56.339000
H 11.933000 26.608719 56.287000
O 29.361000 23.596719 61.293000
H 29.389000 23.193719 60.425000
H 28.456000 23.480719 61.582000
O 9.268000 25.488719 58.624000
H 8.503000 24.961719 58.393000
H 9.469000 25.982719 57.828000
O 12.698000 5.841719 55.563000
H 11.988000 6.009719 56.182000
H 13.300000 5.269719 56.039000
O 8.672000 22.964719 52.448000
H 8.250000 22.688719 51.634000
H 9.318000 22.281719 52.627000
O 20.126000 23.549719 56.995000
H 20.347000 22.636719 56.814000
H 19.175000 23.591719 56.896000
O 20.955000 21.095719 57.034000
H 21.767000 21.218719 57.526000
H 20.560000 20.310719 57.414000
O 10.548000 6.432719 57.267000
H 9.611000 6.248719 57.204000
H 10.793000 6.130719 58.142000
O 8.540000 25.551719 36.284000
H 8.971000 25.514719 37.138000
H 9.252000 25.455719 35.652000
O 0.358000 24.810719 51.757000
H 0.231000 25.757719 51.810000
H 1.266000 24.704719 51.475000
O 9.125000 11.408719 58.325000
H 9.810000 10.820719 58.007000
H 9.321000 11.526719 59.254000
O 4.582000 26.623719 35.360000
H 4.579000 27.262719 34.647000
H 3.917000 26.942719 35.970000
O 25.365000 8.692719 61.972000
H 25.112000 9.049719 61.121000
H 25.095000 7.774719 61.938000
O 16.860000 24.937719 37.313000
H 16.695000 24.097719 36.886000
H 17.205000 24.704719 38.175000
O 2.056000 22.470719 56.225000
H 1.590000 22.967719 55.552000
H 1.407000 21.852719 56.560000
O 9.901000 4.511719 52.345000
H 9.762000 4.234719 53.250000
H 9.270000 5.218719 52.211000
O 16.697000 25.061719 54.918000
H 16.842000 24.311719 55.495000
H 16.517000 25.790719 55.512000
O 15.153000 23.544719 60.790000
H 14.511000 23.520719 61.500000
H 15.969000 23.250719 61.195000
O 1.531000 4.513719 57.528000
H 1.556000 3.603719 57.233000
H 0.928000 4.945719 56.923000
O 17.972000 14.572719 64.607000
H 18.794000 14.683719 64.129000
H 17.832000 15.413719 65.042000
O 21.732000 3.990719 44.917000
H 20.783000 3.871719 44.959000
H 21.945000 4.500719 45.699000
O 15.624000 6.509719 45.160000
H 16.279000 6.765719 44.512000
H 14.891000 6.175719 44.643000
O 24.906000 12.195719 48.039000
H 25.035000 11.280719 47.789000
H 25.756000 12.607719 47.887000
O 22.864000 13.037719 43.647000
H 22.872000 13.884719 44.094000
H 23.224000 13.221719 42.779000
O 27.905000 10.513719 44.682000
H 28.418000 9.930719 44.122000
H 28.425000 11.314719 44.735000
O 26.624000 12.711719 41.338000
H 26.187000 11.886719 41.548000
H 26.947000 13.033719 42.179000
O 25.823000 13.967719 54.843000
H 25.377000 13.341719 54.272000
H 26.671000 13.563719 55.027000
O 20.040000 20.872719 43.731000
H 19.628000 21.611719 44.178000
H 20.099000 20.190719 44.400000
O 24.725000 9.532719 47.579000
H 24.784000 9.641719 46.630000
H 25.448000 8.944719 47.799000
O 22.656000 20.091719 37.200000
H 21.863000 20.566719 36.951000
H 23.150000 20.712719 37.735000
O 1.431000 12.309719 58.116000
H 0.892000 11.720719 57.588000
H 2.172000 11.771719 58.395000
O 24.719000 16.415719 40.619000
H 25.083000 17.187719 41.052000
H 24.066000 16.766719 40.012000
O 16.915000 17.767719 45.629000
H 16.279000 17.125719 45.313000
H 16.556000 18.613719 45.358000
O 22.605000 25.622719 47.432000
H 22.039000 26.121719 48.022000
H 22.209000 24.751719 47.399000
O 22.823000 17.786719 39.101000
H 22.694000 18.675719 38.770000
H 22.122000 17.664719 39.741000
O 21.904000 9.512719 47.967000
H 22.856000 9.418719 47.945000
H 21.601000 9.075719 47.171000
O 21.091000 22.115719 36.840000
H 21.443000 22.389719 35.993000
H 21.603000 22.605719 37.483000
O 22.899000 15.668719 53.365000
H 22.605000 15.367719 52.504000
H 23.425000 16.446719 53.180000
O 18.813000 17.492719 39.127000
H 18.476000 17.791719 38.282000
H 18.032000 17.358719 39.663000
O 0.003000 25.066719 35.580000
H -0.529000 24.291719 35.397000
H -0.271000 25.705719 34.922000
O 19.636000 14.470719 50.546000
H 20.591000 14.537719 50.533000
H 19.385000 14.780719 51.416000
O 20.445000 11.240719 37.787000
H 20.563000 10.293719 37.858000
H 19.533000 11.387719 38.038000
O 0.049000 3.855719 43.201000
H -0.339000 3.037719 43.510000
H -0.315000 3.978719 42.324000
O 21.709000 5.452719 47.114000
H 20.880000 5.023719 47.327000
H 21.456000 6.318719 46.794000
O -0.801000 10.735719 53.837000
H -0.344000 11.302719 53.216000
H -0.591000 9.846719 53.549000
O 25.990000 7.203719 48.713000
H 25.979000 7.169719 49.670000
H 25.150000 6.827719 48.450000
O 2.654000 7.845719 35.694000
H 3.082000 7.519719 34.903000
H 1.785000 7.443719 35.680000
O 19.935000 13.266719 45.122000
H 20.654000 13.001719 45.696000
H 19.165000 13.271719 45.690000
O 22.475000 25.696719 52.609000
H 22.839000 25.008719 52.052000
H 22.208000 25.242719 53.409000
O 20.894000 6.269719 41.437000
H 20.482000 6.081719 40.594000
H 20.238000 6.016719 42.087000
O 24.217000 14.005719 41.454000
H 25.092000 13.625719 41.372000
H 24.290000 14.865719 41.040000
O 21.256000 21.313719 41.415000
H 20.839000 21.136719 42.258000
H 20.774000 20.772719 40.790000
O 23.404000 9.411719 39.929000
H 23.147000 10.154719 40.474000
H 22.647000 9.256719 39.363000
O 25.759000 17.221719 49.097000
H 26.161000 17.457719 48.261000
H 24.833000 17.438719 48.988000
O 0.368000 19.099719 40.245000
H -0.254000 19.180719 39.522000
H 0.926000 19.874719 40.170000
O 12.587000 7.700719 51.377000
H 12.748000 8.556719 51.774000
H 12.612000 7.086719 52.110000
O 24.157000 16.656719 64.988000
H 23.498000 16.774719 65.672000
H 23.678000 16.263719 64.258000
O 24.102000 20.920719 49.639000
H 24.944000 20.479719 49.749000
H 24.111000 21.620719 50.292000
O 27.573000 12.515719 48.295000
H 27.550000 11.622719 47.949000
H 27.634000 12.403719 49.243000
O 23.412000 7.370719 44.166000
H 23.687000 7.363719 43.249000
H 24.054000 7.928719 44.605000
O 19.655000 6.408719 38.945000
H 19.867000 6.505719 38.017000
H 19.392000 5.493719 39.038000
O 23.402000 17.596719 43.998000
H 22.817000 17.648719 43.242000
H 24.277000 17.504719 43.619000
O 26.363000 16.564719 44.527000
H 26.693000 15.671719 44.424000
H 26.602000 17.004719 43.712000
O -0.258000 4.089719 45.868000
H 0.449000 3.599719 46.287000
H -0.153000 3.911719 44.933000
O 20.778000 8.802719 64.666000
H 21.241000 8.338719 63.968000
H 19.989000 9.142719 64.245000
O -0.551000 9.950719 42.065000
H -1.496000 9.849719 41.948000
H -0.167000 9.504719 41.310000
O 3.819000 17.318719 42.607000
H 4.054000 18.232719 42.447000
H 3.996000 16.876719 41.777000
O 19.725000 12.907719 40.620000
H 19.169000 13.060719 41.384000
H 20.417000 12.328719 40.938000
O 28.426000 17.093719 42.411000
H 28.490000 16.695719 41.543000
H 28.724000 17.993719 42.286000
O 22.364000 5.334719 35.406000
H 22.819000 5.299719 34.564000
H 23.065000 5.336719 36.058000
O 23.545000 14.971719 45.406000
H 23.917000 15.664719 44.861000
H 22.758000 15.361719 45.786000
O 16.796000 4.823719 46.714000
H 17.034000 5.308719 47.504000
H 16.445000 5.487719 46.121000
O 20.885000 15.146719 39.778000
H 20.473000 14.346719 40.103000
H 20.155000 15.688719 39.480000
O 23.899000 7.000719 41.473000
H 23.761000 7.831719 41.018000
H 23.040000 6.578719 41.470000
O 0.105000 15.000719 55.841000
H -0.484000 14.295719 55.571000
H 0.983000 14.630719 55.743000
O 28.273000 8.972719 37.852000
H 27.525000 8.900719 38.446000
H 28.134000 9.799719 37.390000
O 21.560000 9.537719 50.773000
H 21.442000 10.431719 51.096000
H 21.777000 9.644719 49.847000
O 21.026000 23.131719 50.406000
H 20.410000 22.479719 50.741000
H 20.604000 23.972719 50.583000
O 26.563000 15.279719 37.675000
H 26.636000 15.984719 38.318000
H 25.659000 14.975719 37.753000
O 21.400000 8.028719 45.863000
H 20.612000 8.187719 45.344000
H 22.121000 8.126719 45.242000
O 29.207000 17.364719 49.144000
H 29.129000 18.052719 48.483000
H 28.858000 16.581719 48.718000
O 21.560000 16.178719 46.763000
H 20.860000 15.877719 47.342000
H 21.108000 16.649719 46.064000
O 20.053000 11.863719 51.890000
H 19.225000 11.626719 51.472000
H 20.139000 12.803719 51.734000
O 0.210000 5.422719 52.099000
H 0.962000 5.760719 51.612000
H -0.294000 4.931719 51.450000
O 19.236000 4.635719 48.245000
H 19.211000 3.683719 48.342000
H 18.754000 4.966719 49.003000
O 26.649000 13.769719 43.830000
H 25.883000 13.234719 44.041000
H 27.371000 13.350719 44.298000
O 26.839000 9.484719 41.677000
H 26.495000 9.097719 40.872000
H 26.818000 8.770719 42.314000
O 18.844000 11.490719 54.256000
H 19.309000 11.369719 53.428000
H 18.723000 10.603719 54.595000
O 24.193000 13.667719 50.428000
H 24.808000 14.400719 50.406000
H 24.507000 13.069719 49.749000
O 28.567000 7.046719 48.098000
H 27.762000 7.549719 48.224000
H 28.690000 7.025719 47.149000
O 10.926000 4.161719 37.402000
H 11.057000 3.244719 37.645000
H 11.153000 4.198719 36.473000
O -0.968000 13.058719 44.782000
H -0.910000 13.991719 44.575000
H -0.173000 12.873719 45.281000
O 2.393000 18.255719 54.832000
H 1.480000 18.180719 54.555000
H 2.366000 18.131719 55.781000
O 22.966000 8.179719 52.708000
H 23.275000 8.801719 53.367000
H 22.587000 8.726719 52.020000
O 9.153000 12.424719 35.362000
H 8.846000 12.163719 34.493000
H 9.921000 11.875719 35.520000
O -0.180000 15.636719 44.362000
H -0.585000 16.353719 43.875000
H 0.713000 15.588719 44.021000
O 20.098000 15.883719 44.279000
H 20.176000 15.028719 44.703000
H 19.157000 16.003719 44.153000
O 16.588000 5.317719 49.736000
H 15.768000 5.802719 49.639000
H 17.165000 5.913719 50.213000
O 18.276000 6.049719 54.379000
H 18.445000 5.168719 54.044000
H 19.097000 6.520719 54.239000
O 24.745000 12.189719 45.228000
H 23.891000 12.308719 44.811000
H 24.677000 12.665719 46.055000
O 17.855000 11.561719 38.865000
H 18.285000 12.078719 39.546000
H 17.902000 10.659719 39.182000
O 24.692000 24.824719 40.458000
H 24.134000 25.566719 40.223000
H 25.004000 25.030719 41.339000
O 26.173000 4.832719 51.266000
H 26.331000 5.769719 51.144000
H 25.843000 4.531719 50.420000
O 18.930000 8.769719 44.852000
H 19.227000 9.010719 43.975000
H 18.517000 9.562719 45.192000
O 17.874000 7.087719 51.352000
H 18.474000 7.800719 51.573000
H 18.250000 6.317719 51.779000
O 25.604000 5.973719 39.695000
H 25.021000 5.981719 40.454000
H 25.063000 5.636719 38.981000
O 23.603000 21.517719 53.938000
H 24.377000 21.269719 53.432000
H 23.365000 22.382719 53.605000
O 25.486000 3.628719 48.303000
H 25.124000 4.513719 48.261000
H 25.020000 3.145719 47.621000
O 26.685000 15.768719 52.830000
H 26.880000 16.563719 53.327000
H 26.418000 15.130719 53.492000
O 18.362000 8.959719 39.388000
H 17.531000 8.553719 39.633000
H 18.918000 8.226719 39.124000
O 21.958000 12.372719 46.937000
H 22.095000 11.574719 47.448000
H 22.766000 12.872719 47.052000
O 28.939000 15.795719 40.022000
H 29.881000 15.922719 40.137000
H 28.847000 14.866719 39.810000
O 4.425000 10.099719 38.070000
H 4.395000 10.104719 37.113000
H 4.417000 9.172719 38.306000
O 3.971000 17.320719 50.429000
H 4.615000 17.885719 50.001000
H 3.189000 17.390719 49.881000
O 16.721000 11.522719 42.263000
H 16.221000 11.815719 41.501000
H 17.362000 12.217719 42.410000
O 28.468000 21.495719 49.861000
H 29.358000 21.307719 50.157000
H 28.154000 22.173719 50.459000
O 1.964000 10.473719 39.204000
H 1.769000 9.621719 39.593000
H 2.865000 10.393719 38.890000
O 20.658000 21.540719 54.338000
H 20.535000 21.114719 55.186000
H 21.479000 21.178719 54.004000
O 3.247000 8.054719 45.126000
H 3.454000 8.255719 44.213000
H 3.725000 7.245719 45.308000
O 26.033000 17.861719 54.775000
H 26.712000 17.473719 55.328000
H 25.212000 17.522719 55.130000
O 22.183000 16.730719 36.797000
H 22.336000 17.192719 37.621000
H 22.188000 15.803719 37.036000
O 19.435000 9.798719 42.212000
H 18.693000 10.396719 42.120000
H 19.231000 9.070719 41.625000
O 4.472000 16.223719 40.217000
H 4.790000 15.324719 40.308000
H 5.095000 16.639719 39.622000
O 28.175000 13.016719 55.329000
H 28.078000 12.762719 56.247000
H 28.461000 12.216719 54.888000
O 27.794000 11.446719 36.658000
H 28.321000 11.776719 35.930000
H 28.058000 11.981719 37.407000
O 24.755000 12.475719 52.890000
H 25.346000 11.741719 52.718000
H 24.510000 12.794719 52.021000
O 3.753000 14.264719 45.802000
H 3.422000 14.823719 45.098000
H 4.110000 14.876719 46.446000
O 26.099000 18.646719 36.099000
H 26.247000 18.448719 37.024000
H 25.431000 18.019719 35.823000
O 23.383000 22.897719 42.544000
H 22.870000 22.206719 42.125000
H 23.994000 22.431719 43.114000
O 22.890000 17.012719 48.988000
H 22.499000 16.990719 48.115000
H 22.613000 17.851719 49.355000
O 22.018000 5.859719 51.401000
H 22.200000 5.009719 51.803000
H 22.520000 6.484719 51.924000
O 14.550000 11.812719 40.158000
H 14.611000 12.751719 40.336000
H 13.785000 11.726719 39.589000
O -0.106000 13.702719 35.805000
H -0.251000 14.558719 36.209000
H 0.419000 13.220719 36.444000
O 19.378000 4.588719 51.231000
H 20.194000 5.057719 51.058000
H 19.657000 3.727719 51.543000
O 26.031000 7.642719 51.391000
H 25.258000 7.980719 51.843000
H 26.586000 8.410719 51.257000
O 26.401000 19.515719 50.168000
H 26.229000 18.657719 49.779000
H 27.290000 19.732719 49.887000
O 28.155000 5.255719 36.285000
H 28.776000 5.980719 36.222000
H 28.622000 4.580719 36.778000
O 25.825000 8.739719 39.203000
H 24.956000 9.075719 39.426000
H 25.794000 7.814719 39.448000
O 24.297000 13.618719 38.202000
H 23.408000 13.814719 37.908000
H 24.217000 13.507719 39.149000
O 25.619000 19.905719 45.264000
H 25.185000 20.754719 45.348000
H 24.956000 19.334719 44.878000
O 25.108000 9.440719 45.043000
H 26.042000 9.246719 44.953000
H 25.048000 10.389719 44.930000
O 2.596000 11.989719 62.345000
H 1.692000 11.924719 62.035000
H 2.565000 11.669719 63.246000
O 22.082000 15.140719 50.671000
H 22.329000 15.831719 50.056000
H 22.790000 14.499719 50.608000
O 21.617000 16.763719 41.917000
H 21.158000 16.370719 42.659000
H 21.578000 16.098719 41.230000
O 28.073000 12.520719 51.056000
H 27.830000 13.444719 51.108000
H 29.006000 12.504719 51.272000
O 18.607000 4.843719 42.581000
H 18.783000 4.540719 43.472000
H 18.042000 5.607719 42.694000
O -0.537000 15.279719 47.137000
H -1.227000 14.617719 47.177000
H -0.407000 15.434719 46.202000
O -0.286000 16.034719 36.981000
H -0.813000 16.002719 37.779000
H 0.617000 15.942719 37.286000
O 26.462000 17.974719 46.762000
H 26.128000 18.705719 46.242000
H 26.406000 17.218719 46.177000
O -0.467000 7.595719 35.790000
H -0.452000 8.156719 35.015000
H -0.923000 8.113719 36.453000
O 21.641000 11.227719 41.329000
H 21.941000 11.729719 42.087000
H 20.948000 10.663719 41.673000
O 23.094000 15.670719 62.719000
H 23.482000 16.484719 62.399000
H 23.723000 14.991719 62.473000
O 15.144000 12.879719 56.990000
H 15.315000 13.726719 56.577000
H 15.116000 12.258719 56.263000
O 23.113000 9.403719 36.088000
H 22.569000 9.564719 35.317000
H 23.698000 10.159719 36.132000
O 14.463000 7.875719 55.659000
H 14.974000 7.633719 54.887000
H 13.834000 7.162719 55.764000
O 1.503000 15.383719 64.089000
H 0.708000 14.889719 64.292000
H 2.022000 15.344719 64.892000
O 24.019000 18.765719 59.002000
H 23.669000 19.647719 58.877000
H 24.037000 18.386719 58.123000
O 21.914000 14.075719 37.564000
H 21.655000 13.155719 37.628000
H 21.511000 14.492719 38.325000
O 20.885000 25.399719 59.284000
H 20.754000 24.769719 58.576000
H 21.443000 26.077719 58.901000
O 25.440000 20.923719 52.295000
H 26.100000 20.863719 52.986000
H 25.793000 20.394719 51.580000
O 16.505000 13.342719 37.136000
H 16.951000 13.369719 36.289000
H 17.138000 12.932719 37.727000
O 24.302000 15.930719 56.094000
H 24.782000 15.221719 55.666000
H 23.438000 15.917719 55.682000
O 15.651000 15.312719 55.876000
H 16.349000 15.899719 56.168000
H 16.048000 14.796719 55.175000
O 18.298000 16.840719 57.229000
H 18.900000 16.686719 56.500000
H 18.226000 15.990719 57.663000
O 20.313000 16.120719 63.577000
H 20.015000 16.087719 62.668000
H 21.180000 15.713719 63.561000
O 3.367000 15.721719 57.707000
H 2.894000 15.500719 58.510000
H 4.112000 15.121719 57.695000
O 27.368000 9.825719 50.705000
H 27.530000 10.713719 51.025000
H 28.216000 9.533719 50.371000
O 2.821000 5.520719 39.864000
H 1.996000 5.035719 39.884000
H 3.105000 5.547719 40.778000
O 0.031000 11.383719 61.414000
H -0.828000 10.960719 61.418000
H 0.567000 10.832719 60.844000
O 17.659000 18.136719 60.684000
H 17.675000 17.194719 60.856000
H 18.367000 18.277719 60.056000
O 24.727000 4.929719 53.627000
H 25.214000 4.949719 52.803000
H 23.872000 4.570719 53.391000
O 25.798000 6.340719 59.358000
H 26.406000 6.108719 60.060000
H 25.855000 5.611719 58.741000
O 29.459000 20.682719 56.667000
H 28.665000 20.813719 56.150000
H 29.365000 19.801719 57.031000
O 24.357000 17.982719 61.636000
H 24.216000 18.118719 60.699000
H 23.973000 18.755719 62.051000
O 17.075000 13.745719 54.314000
H 17.700000 13.020719 54.340000
H 16.401000 13.459719 53.698000
O -0.179000 22.203719 58.996000
H 0.738000 22.047719 59.221000
H -0.268000 21.866719 58.105000
O 23.558000 23.274719 51.132000
H 22.642000 23.239719 50.859000
H 23.995000 23.778719 50.445000
O 21.853000 24.512719 61.822000
H 22.345000 25.284719 62.102000
H 21.528000 24.739719 60.951000
O 28.601000 16.098719 62.178000
H 28.188000 15.275719 62.439000
H 29.027000 15.899719 61.344000
O 20.611000 13.153719 56.000000
H 20.005000 12.453719 55.759000
H 20.235000 13.532719 56.795000
O 20.738000 7.715719 54.172000
H 20.945000 7.482719 55.077000
H 21.584000 7.936719 53.782000
O 27.071000 18.480719 61.842000
H 27.483000 17.642719 62.052000
H 26.132000 18.301719 61.874000
O 27.301000 7.484719 57.272000
H 26.836000 8.181719 56.811000
H 26.750000 7.287719 58.030000
O 21.724000 6.764719 56.619000
H 21.389000 6.034719 57.141000
H 21.676000 7.520719 57.205000
O 15.497000 10.517719 52.776000
H 16.166000 10.373719 52.108000
H 15.364000 11.465719 52.781000
O 28.167000 6.328719 60.877000
H 28.501000 6.269719 61.772000
H 28.624000 5.633719 60.404000
O 5.429000 13.969719 58.682000
H 5.333000 13.443719 59.476000
H 4.951000 13.481719 58.012000
O 26.883000 16.617719 59.371000
H 26.866000 17.294719 60.047000
H 26.756000 15.797719 59.848000
O 2.812000 20.991719 62.085000
H 2.306000 21.479719 62.735000
H 3.639000 20.793719 62.524000
O 26.380000 10.343719 53.599000
H 27.310000 10.383719 53.818000
H 25.954000 10.061719 54.408000
O 25.117000 11.430719 36.347000
H 26.030000 11.384719 36.629000
H 24.757000 12.181719 36.819000
O 24.080000 6.063719 61.923000
H 24.373000 5.700719 61.087000
H 24.079000 5.316719 62.522000
O 24.941000 12.446719 57.155000
H 25.772000 12.404719 57.629000
H 25.178000 12.759719 56.282000
O 23.317000 10.484719 54.214000
H 23.820000 11.204719 53.835000
H 22.826000 10.885719 54.931000
O 22.170000 14.585719 60.136000
H 22.537000 14.980719 60.927000
H 22.700000 14.940719 59.422000
O 19.947000 14.285719 58.342000
H 19.438000 13.601719 58.778000
H 20.756000 14.343719 58.851000
O 19.876000 17.599719 35.845000
H 20.021000 17.265719 34.960000
H 20.559000 17.185719 36.373000
O 27.836000 13.074719 58.215000
H 28.389000 13.541719 58.842000
H 27.975000 12.148719 58.416000
O 28.356000 13.455719 63.673000
H 27.704000 14.065719 64.018000
H 29.066000 13.474719 64.315000
O 22.288000 12.071719 61.182000
H 22.135000 12.864719 60.668000
H 22.637000 12.388719 62.014000
O -0.191000 9.013719 63.477000
H -1.123000 9.171719 63.627000
H -0.049000 9.263719 62.564000
O 5.928000 9.825719 51.196000
H 6.064000 9.372719 50.364000
H 5.158000 10.374719 51.047000
O 26.022000 14.506719 60.841000
H 25.326000 14.508719 60.183000
H 26.278000 13.587719 60.916000
O 21.531000 11.925719 35.287000
H 20.951000 11.544719 34.627000
H 21.237000 11.543719 36.114000
O 22.366000 11.168719 56.711000
H 21.829000 11.913719 56.441000
H 23.127000 11.562719 57.137000
O 20.903000 15.730719 55.100000
H 21.594000 15.833719 54.446000
H 21.038000 14.852719 55.455000
O 18.818000 23.415719 59.554000
H 18.319000 24.230719 59.605000
H 18.531000 23.008719 58.737000
O 21.404000 17.968719 59.905000
H 22.276000 18.244719 59.623000
H 21.139000 18.628719 60.546000
O 12.397000 6.934719 38.408000
H 12.971000 7.604719 38.037000
H 11.512000 7.263719 38.252000
O 23.417000 13.063719 63.328000
H 22.948000 12.934719 64.152000
H 24.110000 12.402719 63.340000
O 21.668000 7.661719 62.443000
H 22.510000 7.378719 62.087000
H 21.332000 8.283719 61.797000
O 6.642000 16.853719 37.527000
H 6.924000 16.718719 36.622000
H 5.694000 16.974719 37.468000
O 3.491000 10.697719 58.462000
H 3.416000 10.023719 57.786000
H 4.302000 10.484719 58.924000
O 17.769000 18.991719 37.009000
H 16.999000 18.759719 36.491000
H 18.493000 18.537719 36.578000
O -0.190000 18.835719 53.208000
H 0.241000 19.399719 52.566000
H -0.324000 18.006719 52.749000
O 26.449000 14.962719 50.236000
H 26.183000 15.806719 49.872000
H 26.571000 15.130719 51.170000
O 14.333000 10.307719 63.642000
H 14.480000 10.600719 64.541000
H 15.149000 9.872719 63.395000
O 3.009000 18.426719 60.364000
H 2.567000 18.732719 61.156000
H 2.509000 17.657719 60.092000
O 26.571000 10.980719 59.167000
H 26.314000 11.573719 59.872000
H 25.883000 10.315719 59.150000
O 6.962000 16.474719 59.565000
H 6.372000 17.214719 59.421000
H 6.499000 15.723719 59.195000
O 25.421000 7.752719 36.278000
H 25.900000 8.123719 37.020000
H 24.672000 8.336719 36.161000
O 22.831000 21.451719 58.935000
H 23.349000 22.189719 58.614000
H 22.179000 21.849719 59.513000
O 24.275000 15.446719 58.676000
H 25.065000 15.965719 58.831000
H 24.199000 15.403719 57.723000
O 14.511000 10.566719 55.304000
H 14.577000 9.700719 55.706000
H 15.117000 10.533719 54.564000
O 15.752000 8.408719 58.047000
H 15.928000 7.699719 58.666000
H 15.310000 7.981719 57.313000
O 27.448000 20.147719 54.462000
H 26.823000 19.423719 54.510000
H 28.231000 19.763719 54.067000
O 3.161000 4.854719 64.941000
H 3.717000 4.282719 64.413000
H 2.674000 5.373719 64.302000
O 24.690000 9.017719 59.153000
H 24.924000 8.091719 59.091000
H 23.860000 9.087719 58.681000
O 27.680000 23.048719 54.109000
H 27.742000 23.120719 53.157000
H 27.454000 22.132719 54.267000
O 26.548000 23.692719 61.873000
H 26.359000 24.363719 61.218000
H 26.066000 22.921719 61.574000
O 1.808000 15.887719 59.933000
H 2.268000 15.624719 60.730000
H 1.211000 15.161719 59.750000
O 1.700000 9.344719 60.093000
H 1.099000 8.923719 59.479000
H 2.287000 9.859719 59.540000
O 19.317000 15.914719 60.983000
H 20.195000 16.177719 60.707000
H 19.196000 15.045719 60.600000
O 22.073000 8.999719 58.306000
H 22.000000 9.767719 57.739000
H 21.695000 9.279719 59.139000
O 25.542000 21.467719 60.527000
H 26.373000 21.059719 60.282000
H 25.051000 21.522719 59.707000
O 28.044000 16.770719 56.294000
H 27.876000 16.592719 57.220000
H 28.745000 16.162719 56.057000
O 28.220000 9.020719 60.646000
H 27.299000 9.178719 60.437000
H 28.303000 8.066719 60.660000
O 12.996000 15.950719 56.837000
H 12.692000 16.715719 56.348000
H 13.876000 15.782719 56.499000
O 25.609000 24.903719 54.517000
H 26.107000 25.495719 53.953000
H 26.139000 24.107719 54.557000
O 17.146000 24.679719 47.800000
H 16.848000 23.895719 48.259000
H 17.808000 24.361719 47.186000
O 19.839000 25.818719 43.203000
H 20.724000 25.738719 42.846000
H 19.848000 26.646719 43.683000
O 23.646000 5.675719 49.117000
H 23.045000 5.263719 48.497000
H 23.145000 5.741719 49.930000
O 28.616000 25.152719 58.525000
H 29.188000 25.486719 57.833000
H 29.085000 24.397719 58.880000
O 29.009000 19.751719 42.575000
H 29.596000 19.568719 41.842000
H 28.358000 20.355719 42.217000
O 28.713000 19.238719 47.072000
H 29.038000 19.505719 46.212000
H 27.873000 18.817719 46.891000
O 25.572000 23.523719 47.347000
H 25.046000 22.899719 46.847000
H 26.394000 23.587719 46.861000
O 26.135000 22.576719 36.189000
H 25.496000 23.281719 36.292000
H 25.669000 21.899719 35.698000
O 22.243000 25.368719 42.103000
H 22.503000 25.792719 42.922000
H 22.892000 24.677719 41.975000
O 24.118000 23.673719 58.199000
H 24.835000 24.145719 58.623000
H 23.684000 24.331719 57.657000
O 0.571000 25.468719 56.720000
H 0.499000 25.132719 55.826000
H 1.342000 25.029719 57.079000
O 27.080000 6.899719 43.551000
H 27.757000 6.766719 44.215000
H 26.325000 6.408719 43.877000
O 25.550000 26.152719 42.673000
H 24.813000 26.673719 42.355000
H 25.856000 26.618719 43.451000
O 20.821000 19.857719 61.768000
H 21.636000 19.757719 62.259000
H 20.885000 20.727719 61.372000
O 23.430000 20.505719 62.649000
H 23.664000 20.769719 63.539000
H 23.948000 21.080719 62.085000
O 25.511000 20.301719 39.903000
H 26.056000 21.030719 39.608000
H 25.676000 20.242719 40.844000
O 0.285000 19.809719 44.990000
H -0.218000 19.841719 44.176000
H 0.987000 20.447719 44.863000
O 0.307000 24.008719 54.457000
H -0.517000 23.524719 54.510000
H 0.405000 24.215719 53.528000
O 26.867000 26.229719 50.048000
H 26.768000 26.346719 50.993000
H 26.019000 25.893719 49.757000
O 29.217000 4.915719 49.454000
H 28.803000 4.160719 49.035000
H 28.869000 5.672719 48.984000
O 12.713000 4.025719 49.372000
H 11.867000 3.837719 49.781000
H 12.862000 3.287719 48.781000
O 20.958000 23.664719 39.937000
H 21.202000 24.275719 40.633000
H 21.027000 22.799719 40.341000
O 23.745000 22.063719 38.928000
H 23.700000 22.661719 39.674000
H 24.196000 21.290719 39.267000
O 17.471000 5.899719 56.933000
H 18.340000 5.722719 57.292000
H 17.621000 6.035719 55.997000
O 20.850000 25.856719 38.431000
H 20.426000 25.109719 38.853000
H 20.158000 26.513719 38.354000
O 27.997000 23.814719 51.272000
H 27.630000 24.432719 50.639000
H 28.855000 24.179719 51.492000
O 17.471000 23.010719 43.989000
H 17.962000 23.073719 44.809000
H 17.630000 23.846719 43.550000
O 24.372000 20.566719 35.125000
H 23.666000 20.485719 35.767000
H 24.935000 19.810719 35.292000
O 19.035000 24.666719 62.832000
H 19.002000 25.030719 63.716000
H 19.879000 24.956719 62.485000
O 2.390000 4.051719 37.441000
H 2.610000 4.214719 36.524000
H 2.790000 4.779719 37.917000
O -0.020000 18.475719 36.192000
H -0.133000 17.527719 36.268000
H -0.728000 18.755719 35.612000
O 25.807000 3.756719 35.505000
H 26.592000 4.228719 35.782000
H 26.072000 2.836719 35.495000
O 24.674000 6.918719 55.660000
H 24.971000 6.492719 54.856000
H 23.720000 6.936719 55.583000
O 25.871000 18.215719 42.328000
H 26.757000 17.880719 42.187000
H 25.999000 19.117719 42.620000
O 19.433000 9.001719 52.305000
H 19.900000 8.548719 53.007000
H 20.111000 9.213719 51.664000
O 24.448000 24.933719 49.278000
H 23.660000 25.194719 48.803000
H 24.895000 24.327719 48.688000
O 21.332000 22.764719 64.123000
H 21.386000 23.267719 63.311000
H 20.550000 22.221719 64.018000
O 21.615000 8.705719 38.103000
H 22.160000 9.021719 37.382000
H 21.207000 7.908719 37.765000
O 27.000000 23.343719 40.527000
H 27.272000 22.979719 39.684000
H 26.187000 23.811719 40.335000
O 18.767000 4.051719 45.137000
H 18.575000 3.161719 44.841000
H 18.139000 4.210719 45.841000
O 26.439000 20.931719 42.318000
H 26.094000 21.387719 43.085000
H 26.957000 21.592719 41.858000
O 22.275000 3.962719 42.297000
H 21.962000 4.054719 43.197000
H 22.008000 4.774719 41.866000
O 17.362000 22.729719 62.020000
H 17.867000 23.375719 62.515000
H 18.006000 22.306719 61.452000
O 24.523000 5.425719 37.167000
H 24.865000 6.160719 36.658000
H 24.770000 4.649719 36.663000
O 13.869000 4.247719 38.019000
H 13.223000 4.952719 38.065000
H 14.234000 4.314719 37.136000
O 25.113000 4.768719 57.180000
H 25.276000 4.081719 56.534000
H 25.137000 5.581719 56.677000
O 17.189000 3.480719 36.546000
H 16.531000 3.915719 36.003000
H 17.898000 3.268719 35.939000
O 29.416000 5.716719 56.296000
H 28.649000 6.040719 56.769000
H 29.174000 4.832719 56.023000
O 28.128000 19.301719 64.371000
H 27.443000 19.072719 64.999000
H 27.752000 19.087719 63.517000
O 27.165000 9.014719 64.007000
H 26.658000 9.093719 63.200000
H 26.754000 8.289719 64.479000
O 23.458000 25.802719 56.286000
H 24.144000 25.434719 55.729000
H 23.461000 26.738719 56.084000
O 21.679000 24.084719 54.505000
H 21.579000 24.446719 55.385000
H 21.427000 23.165719 54.593000
O 27.712000 20.020719 59.752000
H 27.592000 19.440719 60.504000
H 28.568000 20.425719 59.896000
O 26.112000 24.752719 59.497000
H 25.799000 25.655719 59.446000
H 26.952000 24.763719 59.038000
O 2.931000 24.534719 57.581000
H 2.700000 23.674719 57.229000
H 3.243000 24.354719 58.467000
O 18.760000 3.986719 38.824000
H 18.405000 3.763719 37.963000
H 18.053000 3.781719 39.436000
O 24.060000 3.801719 63.426000
H 24.788000 3.696719 64.039000
H 23.680000 2.925719 63.354000
O 20.959000 18.306719 55.083000
H 20.998000 17.349719 55.097000
H 20.212000 18.507719 54.518000
O 1.347000 26.399719 48.478000
H 1.792000 27.200719 48.753000
H 0.950000 26.058719 49.279000
O 25.596000 26.541719 37.000000
H 25.723000 26.791719 37.915000
H 24.840000 27.052719 36.713000
O 20.942000 22.200719 60.755000
H 21.517000 22.870719 61.125000
H 20.166000 22.681719 60.467000
O 18.133000 26.147719 59.120000
H 19.066000 25.933719 59.086000
H 18.008000 26.785719 58.418000
O 22.973000 4.362719 58.621000
H 23.705000 4.758719 58.148000
H 23.359000 3.613719 59.076000
O 19.857000 25.703719 51.042000
H 19.931000 25.366719 51.935000
H 18.971000 26.061719 50.993000
O 1.852000 4.216719 54.411000
H 2.783000 4.201719 54.189000
H 1.416000 4.470719 53.598000
O 8.495000 5.139719 38.364000
H 9.163000 4.922719 37.713000
H 8.920000 4.976719 39.207000
O -0.332000 10.863719 56.567000
H -0.271000 10.041719 57.054000
H -0.638000 10.605719 55.698000
O 6.717000 21.088719 57.945000
H 7.234000 20.448719 58.435000
H 5.866000 20.667719 57.825000
O 20.192000 6.796719 66.378000
H 20.935000 6.269719 66.083000
H 20.150000 7.521719 65.755000
O 6.988000 11.847719 16.717000
H 7.719000 11.954719 17.326000
H 6.683000 12.738719 16.550000
O 4.349000 20.346719 14.750000
H 4.733000 20.280719 15.624000
H 3.665000 19.677719 14.737000
O 2.965000 8.207719 12.413000
H 2.030000 8.294719 12.228000
H 3.371000 8.098719 11.553000
O 12.783000 20.445719 13.627000
H 12.818000 19.701719 14.229000
H 11.894000 20.425719 13.272000
O 9.681000 18.479719 24.463000
H 8.943000 17.945719 24.756000
H 10.358000 18.337719 25.125000
O 21.264000 25.460719 65.831000
H 21.281000 24.503719 65.814000
H 21.152000 25.682719 66.755000
O 3.202000 11.073719 11.311000
H 3.065000 10.150719 11.523000
H 3.454000 11.476719 12.143000
O 15.152000 13.557719 12.434000
H 15.520000 14.397719 12.161000
H 14.281000 13.774719 12.767000
O 14.659000 11.802719 66.006000
H 15.242000 12.251719 66.618000
H 13.978000 12.445719 65.806000
O 10.438000 18.138719 10.685000
H 10.274000 18.392719 9.776000
H 9.576000 17.905719 11.028000
O 25.817000 9.515719 16.177000
H 25.418000 10.090719 16.830000
H 25.201000 8.788719 16.090000
O 24.279000 24.373719 66.223000
H 23.890000 24.285719 67.093000
H 24.488000 25.304719 66.146000
O 6.845000 11.757719 66.578000
H 7.641000 11.825719 66.050000
H 6.445000 10.932719 66.303000
O 7.327000 18.445719 13.002000
H 7.008000 17.677719 13.477000
H 7.075000 19.188719 13.550000
O 9.584000 8.947719 8.759000
H 9.915000 8.765719 9.639000
H 9.950000 9.803719 8.537000
O 12.232000 13.178719 65.679000
H 11.980000 12.346719 66.080000
H 11.478000 13.750719 65.821000
O 0.817000 14.776719 12.947000
H 0.705000 15.423719 12.251000
H 1.000000 15.296719 13.730000
O 17.238000 10.529719 10.503000
H 17.957000 10.100719 10.040000
H 16.679000 10.878719 9.808000
O 11.855000 21.320719 24.247000
H 12.149000 21.941719 24.913000
H 10.933000 21.535719 24.108000
O 5.430000 14.349719 11.885000
H 5.011000 13.635719 12.368000
H 4.747000 15.015719 11.802000
O 0.260000 8.460719 12.422000
H 0.064000 8.775719 11.540000
H -0.119000 7.581719 12.453000
O 15.806000 22.101719 66.571000
H 16.586000 21.998719 67.116000
H 16.036000 21.682719 65.741000
O 15.981000 6.994719 13.369000
H 16.874000 6.917719 13.707000
H 16.090000 7.101719 12.425000
O 8.345000 6.698719 11.933000
H 8.047000 6.401719 11.073000
H 9.076000 7.286719 11.743000
O 10.114000 14.903719 65.498000
H 9.570000 14.149719 65.729000
H 10.043000 15.490719 66.250000
O 11.817000 12.568719 12.147000
H 11.064000 12.892719 11.652000
H 12.136000 13.333719 12.626000
O 10.929000 6.060719 23.526000
H 11.210000 5.293719 24.025000
H 11.569000 6.736719 23.745000
O 14.017000 14.677719 67.408000
H 13.325000 14.085719 67.114000
H 14.824000 14.173719 67.303000
O 5.049000 12.453719 20.969000
H 4.313000 12.170719 21.511000
H 5.748000 12.643719 21.594000
O 23.958000 18.103719 12.911000
H 23.732000 18.583719 13.707000
H 24.884000 17.884719 13.017000
O 12.534000 17.239719 13.207000
H 11.608000 17.268719 12.969000
H 12.979000 16.949719 12.410000
O 2.748000 14.629719 15.027000
H 2.912000 15.279719 14.344000
H 3.081000 15.033719 15.828000
O 12.693000 13.640719 9.451000
H 12.700000 14.482719 9.906000
H 13.381000 13.130719 9.878000
O 2.865000 22.794719 8.928000
H 2.195000 23.009719 8.278000
H 2.745000 21.859719 9.096000
O 12.838000 14.541719 13.581000
H 12.336000 14.208719 14.325000
H 12.683000 15.486719 13.590000
O 15.556000 4.261719 13.802000
H 14.681000 3.976719 13.537000
H 15.655000 5.127719 13.408000
O 1.831000 17.642719 8.784000
H 2.188000 17.280719 7.973000
H 0.920000 17.347719 8.799000
O 0.578000 12.214719 11.965000
H 1.427000 12.001719 11.579000
H 0.669000 13.119719 12.262000
O 18.752000 17.924719 12.922000
H 19.326000 18.229719 12.219000
H 18.911000 16.982719 12.971000
O 6.819000 21.092719 13.947000
H 7.057000 21.428719 13.083000
H 5.862000 21.070719 13.942000
O 19.894000 19.222719 10.481000
H 19.636000 19.981719 11.005000
H 20.847000 19.189719 10.559000
O 9.712000 17.159719 13.632000
H 8.930000 17.706719 13.557000
H 9.388000 16.322719 13.965000
O 16.557000 13.370719 22.735000
H 17.001000 13.846719 23.437000
H 15.651000 13.292719 23.033000
O 0.174000 8.986719 9.692000
H 0.563000 9.434719 8.941000
H -0.210000 8.190719 9.325000
O 4.446000 6.428719 18.084000
H 4.077000 7.271719 17.821000
H 4.803000 6.060719 17.275000
O 14.962000 11.173719 9.015000
H 14.313000 10.482719 9.154000
H 14.987000 11.291719 8.066000
O 10.093000 8.590719 11.508000
H 10.058000 9.497719 11.811000
H 11.028000 8.396719 11.437000
O 27.811000 23.522719 24.436000
H 27.644000 22.885719 23.741000
H 27.258000 23.234719 25.163000
O 4.128000 12.248719 13.603000
H 4.391000 11.628719 14.283000
H 3.732000 12.976719 14.081000
O 12.848000 16.093719 19.498000
H 12.044000 15.578719 19.567000
H 13.119000 15.994719 18.586000
O 18.947000 9.272719 8.952000
H 18.627000 8.524719 9.457000
H 19.901000 9.198719 8.994000
O 29.330000 18.265719 18.172000
H 28.905000 17.814719 17.442000
H 28.620000 18.447719 18.788000
O 3.319000 10.847719 65.276000
H 2.866000 10.006719 65.214000
H 2.718000 11.408719 65.766000
O 18.262000 21.586719 67.645000
H 18.105000 20.703719 67.312000
H 19.130000 21.817719 67.316000
O 29.178000 16.645719 11.771000
H 28.381000 16.159719 11.984000
H 29.096000 16.841719 10.837000
O 7.609000 16.679719 8.996000
H 7.026000 16.596719 8.241000
H 7.656000 15.796719 9.362000
O 11.240000 18.201719 66.617000
H 10.945000 19.091719 66.813000
H 12.036000 18.321719 66.099000
O 12.217000 23.333719 66.092000
H 11.743000 24.013719 65.614000
H 12.937000 23.798719 66.519000
O 13.364000 18.917719 25.120000
H 13.088000 19.800719 24.877000
H 13.347000 18.425719 24.299000
O 3.993000 17.956719 67.527000
H 3.961000 18.684719 68.148000
H 4.096000 18.375719 66.672000
O 2.366000 20.145719 9.164000
H 3.286000 19.892719 9.089000
H 1.880000 19.359719 8.913000
O 9.413000 14.587719 14.050000
H 10.265000 14.309719 14.389000
H 8.778000 14.205719 14.657000
O 4.452000 6.492719 14.949000
H 4.887000 7.001719 14.265000
H 3.683000 7.011719 15.183000
O 14.775000 19.573719 11.914000
H 13.904000 19.490719 12.303000
H 15.343000 19.056719 12.486000
O 11.483000 3.765719 24.692000
H 12.383000 3.441719 24.709000
H 10.944000 2.975719 24.643000
O 14.061000 6.362719 9.506000
H 13.606000 5.528719 9.386000
H 13.633000 6.763719 10.262000
O 18.159000 18.050719 8.653000
H 18.818000 18.489719 9.192000
H 18.480000 17.153719 8.565000
O 13.969000 16.765719 23.085000
H 13.423000 17.009719 22.338000
H 14.748000 17.315719 23.002000
O 10.694000 20.512719 12.119000
H 10.863000 19.641719 11.759000
H 11.039000 21.115719 11.461000
O 7.388000 14.055719 9.816000
H 6.685000 13.887719 10.443000
H 8.192000 13.958719 10.326000
O 7.035000 19.154719 10.456000
H 7.120000 18.817719 11.348000
H 7.081000 18.376719 9.900000
O 22.430000 19.157719 10.722000
H 23.018000 18.739719 11.352000
H 22.947000 19.870719 10.347000
O 9.390000 13.239719 11.429000
H 9.369000 13.845719 12.170000
H 9.053000 12.415719 11.783000
O 9.311000 8.233719 24.232000
H 9.916000 7.508719 24.074000
H 8.708000 7.902719 24.898000
O 1.669000 12.383719 67.280000
H 1.519000 11.814719 68.035000
H 2.348000 12.992719 67.569000
O 15.345000 19.403719 19.400000
H 16.217000 19.252719 19.764000
H 14.762000 19.389719 20.159000
O 19.166000 11.004719 23.445000
H 19.454000 11.405719 22.625000
H 18.239000 11.235719 23.512000
O 12.545000 8.083719 24.238000
H 13.156000 8.746719 23.917000
H 11.982000 8.553719 24.853000
O 19.209000 14.949719 13.139000
H 18.435000 14.602719 13.583000
H 19.857000 15.055719 13.836000
O 7.163000 13.011719 22.445000
H 7.498000 12.192719 22.812000
H 7.790000 13.675719 22.730000
O 8.692000 4.688719 22.724000
H 8.417000 4.187719 23.493000
H 9.414000 5.232719 23.037000
O 16.157000 8.347719 23.053000
H 15.921000 7.920719 23.877000
H 15.629000 7.900719 22.392000
O 2.530000 21.503719 19.437000
H 3.279000 21.067719 19.030000
H 2.535000 21.194719 20.343000
O 3.225000 14.744719 22.003000
H 2.644000 15.009719 22.716000
H 3.227000 13.787719 22.037000
O 8.801000 16.019719 17.619000
H 9.429000 15.439719 18.050000
H 8.168000 16.237719 18.303000
O 24.920000 10.842719 23.632000
H 25.109000 10.863719 24.570000
H 25.095000 9.938719 23.371000
O 19.253000 21.651719 11.742000
H 18.439000 22.064719 11.454000
H 19.207000 21.670719 12.697000
O 16.422000 11.204719 19.105000
H 16.310000 10.305719 18.795000
H 16.062000 11.747719 18.404000
O 12.643000 13.360719 17.925000
H 13.490000 13.333719 17.480000
H 12.815000 12.989719 18.790000
O 8.708000 14.939719 23.092000
H 9.417000 15.020719 23.729000
H 9.007000 15.440719 22.333000
O 11.843000 10.526719 14.925000
H 12.782000 10.439719 15.089000
H 11.756000 10.438719 13.976000
O 16.516000 16.884719 65.371000
H 15.646000 17.005719 65.752000
H 16.499000 17.401719 64.565000
O 17.571000 23.241719 16.787000
H 17.450000 22.348719 16.462000
H 16.814000 23.396719 17.351000
O 3.311000 8.555719 16.930000
H 3.942000 9.121719 16.487000
H 2.689000 8.307719 16.246000
O 15.408000 4.619719 24.823000
H 15.286000 5.550719 25.011000
H 15.930000 4.603719 24.020000
O 16.772000 20.915719 15.853000
H 16.595000 20.018719 16.136000
H 16.085000 21.106719 15.215000
O 10.878000 9.430719 17.870000
H 10.730000 8.537719 17.560000
H 11.544000 9.339719 18.552000
O 2.545000 5.348719 21.370000
H 1.947000 5.718719 22.018000
H 3.245000 5.996719 21.292000
O 9.278000 16.313719 20.979000
H 9.650000 15.713719 20.333000
H 8.414000 16.535719 20.632000
O 1.125000 6.611719 23.366000
H 0.963000 7.520719 23.113000
H 0.254000 6.249719 23.529000
O 9.616000 12.406719 21.110000
H 10.341000 12.141719 21.677000
H 8.863000 12.470719 21.698000
O 0.337000 22.763719 67.999000
H 0.757000 22.114719 67.434000
H 0.840000 23.565719 67.859000
O 18.334000 12.979719 20.386000
H 17.824000 12.277719 19.981000
H 17.754000 13.341719 21.056000
O 21.004000 9.707719 20.850000
H 20.142000 9.825719 20.453000
H 21.305000 10.595719 21.042000
O 9.607000 22.348719 23.226000
H 8.667000 22.514719 23.292000
H 9.758000 22.188719 22.294000
O 15.354000 18.832719 16.575000
H 14.434000 18.659719 16.376000
H 15.368000 19.003719 17.517000
O 8.094000 19.514719 19.587000
H 7.524000 19.341719 20.336000
H 8.751000 20.125719 19.921000
O 14.461000 7.161719 21.118000
H 13.865000 6.414719 21.183000
H 13.949000 7.838719 20.677000
O 1.404000 20.922719 66.143000
H 1.383000 21.476719 65.363000
H 0.721000 20.269719 65.993000
O 13.553000 23.654719 16.803000
H 12.707000 23.741719 17.242000
H 14.011000 22.974719 17.297000
O 0.144000 4.631719 19.918000
H 0.878000 4.897719 20.473000
H 0.470000 4.735719 19.024000
O 4.426000 3.966719 14.024000
H 4.604000 4.855719 14.331000
H 4.837000 3.399719 14.677000
O 15.387000 14.760719 20.230000
H 14.623000 15.336719 20.211000
H 15.627000 14.711719 21.156000
O 6.598000 3.522719 67.648000
H 7.311000 4.062719 67.991000
H 6.350000 2.958719 68.381000
O 16.007000 17.892719 13.660000
H 16.928000 18.149719 13.632000
H 15.673000 18.281719 14.468000
O 7.627000 9.162719 18.735000
H 7.493000 9.037719 17.796000
H 8.490000 9.570719 18.802000
O 13.052000 23.249719 22.618000
H 12.575000 22.504719 22.983000
H 12.615000 23.431719 21.786000
O 26.778000 11.964719 21.800000
H 27.380000 12.421719 22.387000
H 26.150000 11.537719 22.384000
O 10.532000 24.884719 24.468000
H 10.816000 25.608719 23.911000
H 10.293000 24.189719 23.855000
O 5.024000 10.221719 15.791000
H 5.458000 10.940719 16.250000
H 5.662000 9.507719 15.804000
O 7.808000 7.404719 66.850000
H 6.880000 7.307719 66.636000
H 8.029000 6.602719 67.325000
O 6.384000 6.909719 19.990000
H 5.599000 6.600719 19.538000
H 6.441000 7.838719 19.764000
O 15.985000 18.482719 23.031000
H 16.514000 18.489719 22.233000
H 15.887000 19.406719 23.262000
O 11.360000 4.638719 19.369000
H 11.812000 5.018719 20.122000
H 11.987000 4.014719 19.003000
O 12.775000 10.223719 12.368000
H 12.524000 11.093719 12.056000
H 13.728000 10.260719 12.440000
O 6.243000 16.079719 13.779000
H 6.176000 15.366719 13.144000
H 5.359000 16.441719 13.828000
O 13.209000 18.343719 20.857000
H 13.153000 17.663719 20.186000
H 12.299000 18.582719 21.033000
O 7.805000 6.336719 17.564000
H 7.391000 6.495719 18.412000
H 7.430000 7.001719 16.986000
O 1.493000 7.355719 15.233000
H 1.452000 7.355719 14.276000
H 1.012000 6.570719 15.493000
O 10.789000 10.155719 65.553000
H 10.177000 9.633719 65.033000
H 10.799000 9.730719 66.410000
O 15.052000 8.614719 67.715000
H 14.923000 9.520719 67.996000
H 15.437000 8.179719 68.476000
O 11.754000 11.917719 22.737000
H 11.823000 11.183719 23.348000
H 12.239000 12.627719 23.158000
O 7.045000 14.366719 15.811000
H 6.824000 15.000719 15.129000
H 7.723000 14.799719 16.330000
O 12.821000 18.404719 15.646000
H 12.921000 17.857719 14.868000
H 11.891000 18.342719 15.866000
O 13.450000 9.553719 19.265000
H 14.259000 9.338719 18.801000
H 13.619000 10.408719 19.661000
O 8.069000 10.587719 23.465000
H 8.609000 9.823719 23.263000
H 7.277000 10.224719 23.861000
O 10.517000 3.856719 14.957000
H 11.024000 4.290719 15.644000
H 11.159000 3.323719 14.487000
O 4.485000 13.748719 67.785000
H 5.082000 13.110719 67.393000
H 4.799000 13.850719 68.683000
O 4.638000 7.454719 23.790000
H 4.279000 7.806719 22.975000
H 5.221000 6.748719 23.510000
O 18.107000 7.092719 22.078000
H 18.698000 7.679719 21.608000
H 17.395000 7.658719 22.379000
O 11.422000 13.363719 15.523000
H 11.706000 12.456719 15.414000
H 11.625000 13.570719 16.436000
O 12.273000 22.248719 20.048000
H 11.850000 22.814719 19.403000
H 13.020000 21.870719 19.584000
O 5.571000 9.979719 20.161000
H 5.474000 10.881719 20.465000
H 6.434000 9.957719 19.746000
O 28.684000 5.455719 23.432000
H 29.330000 4.750719 23.458000
H 28.149000 5.320719 24.214000
O 2.620000 15.638719 66.514000
H 2.830000 16.443719 66.988000
H 3.399000 15.090719 66.615000
O 7.159000 16.579719 24.819000
H 7.569000 15.887719 24.300000
H 6.365000 16.803719 24.334000
O 5.636000 9.916719 24.480000
H 4.856000 10.416719 24.717000
H 5.300000 9.065719 24.198000
O 8.470000 10.665719 12.281000
H 7.537000 10.520719 12.124000
H 8.621000 10.326719 13.163000
O 10.472000 14.441719 19.324000
H 9.919000 13.825719 19.804000
H 11.116000 13.889719 18.879000
O 16.685000 20.862719 24.361000
H 16.655000 21.379719 23.556000
H 17.602000 20.597719 24.442000
O 26.327000 15.213719 24.727000
H 25.372000 15.279719 24.717000
H 26.558000 15.209719 25.656000
O 12.652000 5.277719 12.821000
H 11.783000 5.117719 12.452000
H 12.537000 5.161719 13.764000
O 14.529000 21.885719 18.582000
H 15.010000 21.093719 18.820000
H 14.852000 22.553719 19.188000
O 13.224000 12.703719 20.448000
H 12.639000 12.818719 21.197000
H 13.970000 13.273719 20.637000
O 10.196000 18.123719 16.285000
H 10.049000 17.687719 15.446000
H 9.796000 17.540719 16.931000
O 7.220000 21.881719 10.114000
H 7.271000 20.940719 10.278000
H 6.288000 22.088719 10.190000
O 10.757000 18.625719 22.008000
H 10.245000 17.986719 21.511000
H 10.433000 18.546719 22.905000
O 14.847000 21.868719 14.317000
H 14.678000 22.770719 14.586000
H 13.980000 21.501719 14.146000
O 9.915000 21.149719 20.923000
H 10.802000 21.413719 20.675000
H 10.039000 20.360719 21.450000
O 7.050000 3.994719 24.830000
H 6.728000 3.946719 25.730000
H 6.320000 3.676719 24.298000
O 4.086000 20.253719 17.351000
H 3.455000 19.568719 17.571000
H 3.557000 20.954719 16.970000
O 2.735000 18.046719 23.789000
H 2.242000 17.226719 23.797000
H 2.652000 18.386719 24.679000
O 16.113000 15.933719 11.940000
H 15.980000 16.711719 12.483000
H 16.182000 16.272719 11.048000
O 19.484000 19.015719 18.308000
H 18.888000 18.369719 17.929000
H 20.101000 18.497719 18.826000
O 8.747000 10.095719 15.043000
H 9.656000 10.165719 15.333000
H 8.298000 10.818719 15.482000
O 3.938000 12.977719 16.720000
H 3.478000 12.249719 17.140000
H 3.251000 13.464719 16.265000
O 7.046000 22.629719 23.661000
H 6.620000 21.801719 23.439000
H 6.386000 23.297719 23.475000
O 13.650000 13.928719 23.465000
H 13.833000 14.850719 23.282000
H 13.240000 13.932719 24.330000
O 12.425000 16.320719 10.435000
H 11.653000 16.874719 10.554000
H 12.859000 16.676719 9.660000
O 19.575000 20.259719 24.368000
H 19.784000 19.923719 23.497000
H 20.015000 19.657719 24.969000
O 0.072000 13.758719 19.971000
H 0.483000 13.201719 19.311000
H -0.055000 13.183719 20.726000
O 15.866000 7.287719 65.584000
H 16.575000 6.744719 65.928000
H 15.525000 7.751719 66.350000
O 3.764000 8.017719 21.428000
H 2.939000 8.394719 21.122000
H 4.438000 8.470719 20.921000
O 5.746000 18.830719 20.906000
H 5.825000 17.985719 21.348000
H 4.827000 18.879719 20.643000
O 6.871000 8.108719 15.866000
H 7.525000 8.695719 15.487000
H 6.475000 7.670719 15.112000
O 12.770000 5.166719 21.432000
H 12.131000 5.230719 22.142000
H 13.326000 4.426719 21.674000
O 5.201000 3.743719 19.146000
H 5.628000 3.970719 19.972000
H 4.606000 4.473719 18.975000
O 2.150000 18.135719 17.575000
H 1.305000 18.222719 18.017000
H 2.509000 17.311719 17.904000
O 14.030000 25.225719 67.134000
H 14.964000 25.170719 67.335000
H 13.617000 25.443719 67.970000
O 5.881000 20.681719 67.435000
H 6.671000 21.092719 67.084000
H 6.196000 19.889719 67.870000
O 1.078000 20.902719 11.446000
H 1.615000 20.826719 10.657000
H 1.590000 21.460719 12.032000
O 15.654000 24.509719 12.206000
H 16.310000 24.803719 11.574000
H 15.950000 24.866719 13.043000
O 8.069000 21.621719 66.286000
H 7.650000 22.064719 65.548000
H 8.898000 21.298719 65.933000
O 3.966000 19.951719 65.667000
H 3.210000 20.297719 66.141000
H 4.721000 20.214719 66.194000
O 11.478000 20.987719 67.680000
H 12.380000 20.722719 67.859000
H 11.560000 21.771719 67.137000
O 3.554000 16.620719 13.004000
H 3.113000 17.304719 13.508000
H 3.694000 17.010719 12.141000
O 1.767000 5.674719 9.660000
H 2.135000 4.791719 9.618000
H 0.845000 5.560719 9.430000
O 15.041000 4.773719 16.458000
H 15.867000 5.151719 16.758000
H 15.182000 4.594719 15.528000
O 4.688000 3.832719 11.192000
H 3.798000 3.726719 10.854000
H 4.568000 4.109719 12.100000
O 14.760000 25.366719 23.965000
H 14.230000 25.380719 24.762000
H 14.423000 24.623719 23.465000
O 9.435000 24.625719 14.510000
H 9.122000 24.652719 13.605000
H 8.839000 24.020719 14.951000
O 10.240000 20.861719 16.836000
H 9.538000 21.411719 16.489000
H 9.975000 19.967719 16.620000
O -0.237000 8.777719 18.035000
H -1.169000 8.725719 18.248000
H -0.124000 8.168719 17.305000
O 7.339000 5.064719 9.832000
H 6.762000 4.562719 10.408000
H 7.610000 4.438719 9.160000
O 3.558000 7.835719 9.747000
H 2.936000 7.108719 9.701000
H 4.305000 7.545719 9.225000
O 6.296000 7.738719 13.166000
H 5.947000 8.276719 12.455000
H 7.056000 7.298719 12.785000
O 2.910000 22.450719 13.171000
H 3.588000 21.949719 13.623000
H 2.901000 23.297719 13.616000
O 15.305000 18.591719 9.241000
H 16.237000 18.379719 9.195000
H 15.179000 18.927719 10.128000
O 6.186000 5.613719 22.275000
H 6.433000 6.070719 21.471000
H 7.019000 5.407719 22.700000
O 7.983000 3.834719 15.846000
H 8.839000 4.088719 15.500000
H 7.839000 4.423719 16.586000
O 20.314000 4.758719 18.224000
H 19.901000 4.026719 17.766000
H 21.157000 4.413719 18.518000
O 6.835000 23.720719 18.724000
H 6.954000 22.776719 18.830000
H 6.061000 23.924719 19.248000
O 23.522000 19.158719 15.740000
H 23.629000 19.966719 15.238000
H 22.627000 18.876719 15.553000
O 2.636000 24.860719 24.572000
H 3.275000 25.567719 24.657000
H 1.836000 25.212719 24.963000
O 20.043000 4.937719 22.531000
H 19.403000 5.573719 22.210000
H 20.872000 5.415719 22.540000
O 15.771000 24.833719 18.632000
H 16.388000 25.533719 18.846000
H 15.494000 24.489719 19.482000
O 5.180000 6.195719 66.813000
H 5.535000 5.307719 66.853000
H 4.686000 6.219719 65.993000
O 11.112000 23.308719 17.798000
H 10.343000 23.847719 17.613000
H 10.823000 22.411719 17.626000
O 4.168000 23.750719 20.064000
H 4.366000 23.666719 20.997000
H 3.508000 23.077719 19.897000
O 8.151000 22.478719 15.949000
H 7.677000 22.467719 16.780000
H 7.635000 21.916719 15.371000
O 4.869000 24.355719 22.880000
H 4.937000 25.123719 22.312000
H 3.980000 24.395719 23.232000
O 6.050000 24.111719 66.445000
H 5.287000 24.493719 66.012000
H 6.799000 24.553719 66.046000
O 16.659000 4.586719 22.450000
H 17.132000 5.418719 22.435000
H 16.960000 4.125719 21.667000
O 12.477000 24.143719 14.295000
H 12.829000 23.880719 15.145000
H 11.527000 24.104719 14.406000
O 3.259000 25.006719 14.315000
H 3.130000 25.036719 15.263000
H 3.128000 25.909719 14.026000
O 1.389000 22.533719 24.033000
H 1.942000 23.225719 24.393000
H 0.816000 22.982719 23.412000
O 4.956000 16.693719 23.155000
H 4.530000 16.009719 22.639000
H 4.267000 17.339719 23.312000
O 9.447000 3.121719 20.461000
H 10.078000 3.666719 19.990000
H 9.227000 3.629719 21.242000
O 5.269000 20.493719 23.231000
H 4.843000 20.171719 24.026000
H 5.609000 19.707719 22.805000
O 19.207000 24.801719 13.674000
H 19.811000 24.327719 14.247000
H 18.337000 24.534719 13.970000
O 12.828000 26.463719 16.592000
H 13.025000 25.561719 16.339000
H 11.933000 26.608719 16.287000
O 29.361000 23.596719 21.293000
H 29.389000 23.193719 20.425000
H 28.456000 23.480719 21.582000
O 9.268000 25.488719 18.624000
H 8.503000 24.961719 18.393000
H 9.469000 25.982719 17.828000
O 12.698000 5.841719 15.563000
H 11.988000 6.009719 16.182000
H 13.300000 5.269719 16.039000
O 8.672000 22.964719 12.448000
H 8.250000 22.688719 11.634000
H 9.318000 22.281719 12.627000
O 20.126000 23.549719 16.995000
H 20.347000 22.636719 16.814000
H 19.175000 23.591719 16.896000
O 20.955000 21.095719 17.034000
H 21.767000 21.218719 17.526000
H 20.560000 20.310719 17.414000
O 10.548000 6.432719 17.267000
H 9.611000 6.248719 17.204000
H 10.793000 6.130719 18.142000
O 8.540000 25.551719 66.284000
H 8.971000 25.514719 67.138000
H 9.252000 25.455719 65.652000
O 0.358000 24.810719 11.757000
H 0.231000 25.757719 11.810000
H 1.266000 24.704719 11.475000
O 9.125000 11.408719 18.325000
H 9.810000 10.820719 18.007000
H 9.321000 11.526719 19.254000
O 25.365000 8.692719 21.972000
H 25.112000 9.049719 21.121000
H 25.095000 7.774719 21.938000
O 16.860000 24.937719 67.313000
H 16.695000 24.097719 66.886000
H 17.205000 24.704719 68.175000
O 2.056000 22.470719 16.225000
H 1.590000 22.967719 15.552000
H 1.407000 21.852719 16.560000
O 9.901000 4.511719 12.345000
H 9.762000 4.234719 13.250000
H 9.270000 5.218719 12.211000
O 16.697000 25.061719 14.918000
H 16.842000 24.311719 15.495000
H 16.517000 25.790719 15.512000
O 15.153000 23.544719 20.790000
H 14.511000 23.520719 21.500000
H 15.969000 23.250719 21.195000
O 1.531000 4.513719 17.528000
H 1.556000 3.603719 17.233000
H 0.928000 4.945719 16.923000
O 17.972000 14.572719 24.607000
H 18.794000 14.683719 24.129000
H 17.832000 15.413719 25.042000
O 25.823000 13.967719 14.843000
H 25.377000 13.341719 14.272000
H 26.671000 13.563719 15.027000
O 22.656000 20.091719 67.200000
H 21.863000 20.566719 66.951000
H 23.150000 20.712719 67.735000
O 1.431000 12.309719 18.116000
H 0.892000 11.720719 17.588000
H 2.172000 11.771719 18.395000
O 21.091000 22.115719 66.840000
H 21.443000 22.389719 65.993000
H 21.603000 22.605719 67.483000
O 22.899000 15.668719 13.365000
H 22.605000 15.367719 12.504000
H 23.425000 16.446719 13.180000
O 0.003000 25.066719 65.580000
H -0.529000 24.291719 65.397000
H -0.271000 25.705719 64.922000
O 19.636000 14.470719 10.546000
H 20.591000 14.537719 10.533000
H 19.385000 14.780719 11.416000
O 20.445000 11.240719 67.787000
H 20.563000 10.293719 67.858000
H 19.533000 11.387719 68.038000
O -0.801000 10.735719 13.837000
H -0.344000 11.302719 13.216000
H -0.591000 9.846719 13.549000
O 25.990000 7.203719 8.713000
H 25.979000 7.169719 9.670000
H 25.150000 6.827719 8.450000
O 2.654000 7.845719 65.694000
H 3.082000 7.519719 64.903000
H 1.785000 7.443719 65.680000
O 22.475000 25.696719 12.609000
H 22.839000 25.008719 12.052000
H 22.208000 25.242719 13.409000
O 25.759000 17.221719 9.097000
H 26.161000 17.457719 8.261000
H 24.833000 17.438719 8.988000
O 12.587000 7.700719 11.377000
H 12.748000 8.556719 11.774000
H 12.612000 7.086719 12.110000
O 24.157000 16.656719 24.988000
H 23.498000 16.774719 25.672000
H 23.678000 16.263719 24.258000
O 24.102000 20.920719 9.639000
H 24.944000 20.479719 9.749000
H 24.111000 21.620719 10.292000
O 20.778000 8.802719 24.666000
H 21.241000 8.338719 23.968000
H 19.989000 9.142719 24.245000
O 22.364000 5.334719 65.406000
H 22.819000 5.299719 64.564000
H 23.065000 5.336719 66.058000
O 0.105000 15.000719 15.841000
H -0.484000 14.295719 15.571000
H 0.983000 14.630719 15.743000
O 28.273000 8.972719 67.852000
H 27.525000 8.900719 68.446000
H 28.134000 9.799719 67.390000
O 21.560000 9.537719 10.773000
H 21.442000 10.431719 11.096000
H 21.777000 9.644719 9.847000
O 26.563000 15.279719 67.675000
H 26.636000 15.984719 68.318000
H 25.659000 14.975719 67.753000
O 29.207000 17.364719 9.144000
H 29.129000 18.052719 8.483000
H 28.858000 16.581719 8.718000
O 20.053000 11.863719 11.890000
H 19.225000 11.626719 11.472000
H 20.139000 12.803719 11.734000
O 0.210000 5.422719 12.099000
H 0.962000 5.760719 11.612000
H -0.294000 4.931719 11.450000
O 18.844000 11.490719 14.256000
H 19.309000 11.369719 13.428000
H 18.723000 10.603719 14.595000
O 24.193000 13.667719 10.428000
H 24.808000 14.400719 10.406000
H 24.507000 13.069719 9.749000
O 10.926000 4.161719 67.402000
H 11.057000 3.244719 67.645000
H 11.153000 4.198719 66.473000
O 2.393000 18.255719 14.832000
H 1.480000 18.180719 14.555000
H 2.366000 18.131719 15.781000
O 22.966000 8.179719 12.708000
H 23.275000 8.801719 13.367000
H 22.587000 8.726719 12.020000
O 9.153000 12.424719 65.362000
H 8.846000 12.163719 64.493000
H 9.921000 11.875719 65.520000
O 16.588000 5.317719 9.736000
H 15.768000 5.802719 9.639000
H 17.165000 5.913719 10.213000
O 18.276000 6.049719 14.379000
H 18.445000 5.168719 14.044000
H 19.097000 6.520719 14.239000
O 26.173000 4.832719 11.266000
H 26.331000 5.769719 11.144000
H 25.843000 4.531719 10.420000
O 17.874000 7.087719 11.352000
H 18.474000 7.800719 11.573000
H 18.250000 6.317719 11.779000
O 23.603000 21.517719 13.938000
H 24.377000 21.269719 13.432000
H 23.365000 22.382719 13.605000
O 26.685000 15.768719 12.830000
H 26.880000 16.563719 13.327000
H 26.418000 15.130719 13.492000
O 3.971000 17.320719 10.429000
H 4.615000 17.885719 10.001000
H 3.189000 17.390719 9.881000
O 28.468000 21.495719 9.861000
H 29.358000 21.307719 10.157000
H 28.154000 22.173719 10.459000
O 20.658000 21.540719 14.338000
H 20.535000 21.114719 15.186000
H 21.479000 21.178719 14.004000
O 26.033000 17.861719 14.775000
H 26.712000 17.473719 15.328000
H 25.212000 17.522719 15.130000
O 22.183000 16.730719 66.797000
H 22.336000 17.192719 67.621000
H 22.188000 15.803719 67.036000
O 28.175000 13.016719 15.329000
H 28.078000 12.762719 16.247000
H 28.461000 12.216719 14.888000
O 27.794000 11.446719 66.658000
H 28.321000 11.776719 65.930000
H 28.058000 11.981719 67.407000
O 24.755000 12.475719 12.890000
H 25.346000 11.741719 12.718000
H 24.510000 12.794719 12.021000
O 26.099000 18.646719 66.099000
H 26.247000 18.448719 67.024000
H 25.431000 18.019719 65.823000
O 22.890000 17.012719 8.988000
H 22.499000 16.990719 8.115000
H 22.613000 17.851719 9.355000
O 22.018000 5.859719 11.401000
H 22.200000 5.009719 11.803000
H 22.520000 6.484719 11.924000
O -0.106000 13.702719 65.805000
H -0.251000 14.558719 66.209000
H 0.419000 13.220719 66.444000
O 19.378000 4.588719 11.231000
H 20.194000 5.057719 11.058000
H 19.657000 3.727719 11.543000
O 26.031000 7.642719 11.391000
H 25.258000 7.980719 11.843000
H 26.586000 8.410719 11.257000
O 26.401000 19.515719 10.168000
H 26.229000 18.657719 9.779000
H 27.290000 19.732719 9.887000
O 28.155000 5.255719 66.285000
H 28.776000 5.980719 66.222000
H 28.622000 4.580719 66.778000
O 2.596000 11.989719 22.345000
H 1.692000 11.924719 22.035000
H 2.565000 11.669719 23.246000
O 22.082000 15.140719 10.671000
H 22.329000 15.831719 10.056000
H 22.790000 14.499719 10.608000
O 28.073000 12.520719 11.056000
H 27.830000 13.444719 11.108000
H 29.006000 12.504719 11.272000
O -0.286000 16.034719 66.981000
H -0.813000 16.002719 67.779000
H 0.617000 15.942719 67.286000
O -0.467000 7.595719 65.790000
H -0.452000 8.156719 65.015000
H -0.923000 8.113719 66.453000
O 23.094000 15.670719 22.719000
H 23.482000 16.484719 22.399000
H 23.723000 14.991719 22.473000
O 15.144000 12.879719 16.990000
H 15.315000 13.726719 16.577000
H 15.116000 12.258719 16.263000
O 23.113000 9.403719 66.088000
H 22.569000 9.564719 65.317000
H 23.698000 10.159719 66.132000
O 14.463000 7.875719 15.659000
H 14.974000 7.633719 14.887000
H 13.834000 7.162719 15.764000
O 1.503000 15.383719 24.089000
H 0.708000 14.889719 24.292000
H 2.022000 15.344719 24.892000
O 24.019000 18.765719 19.002000
H 23.669000 19.647719 18.877000
H 24.037000 18.386719 18.123000
O 21.914000 14.075719 67.564000
H 21.655000 13.155719 67.628000
H 21.511000 14.492719 68.325000
O 20.885000 25.399719 19.284000
H 20.754000 24.769719 18.576000
H 21.443000 26.077719 18.901000
O 25.440000 20.923719 12.295000
H 26.100000 20.863719 12.986000
H 25.793000 20.394719 11.580000
O 16.505000 13.342719 67.136000
H 16.951000 13.369719 66.289000
H 17.138000 12.932719 67.727000
O 24.302000 15.930719 16.094000
H 24.782000 15.221719 15.666000
H 23.438000 15.917719 15.682000
O 15.651000 15.312719 15.876000
H 16.349000 15.899719 16.168000
H 16.048000 14.796719 15.175000
O 18.298000 16.840719 17.229000
H 18.900000 16.686719 16.500000
H 18.226000 15.990719 17.663000
O 20.313000 16.120719 23.577000
H 20.015000 16.087719 22.668000
H 21.180000 15.713719 23.561000
O 3.367000 15.721719 17.707000
H 2.894000 15.500719 18.510000
H 4.112000 15.121719 17.695000
O 27.368000 9.825719 10.705000
H 27.530000 10.713719 11.025000
H 28.216000 9.533719 10.371000
O 0.031000 11.383719 21.414000
H -0.828000 10.960719 21.418000
H 0.567000 10.832719 20.844000
O 17.659000 18.136719 20.684000
H 17.675000 17.194719 20.856000
H 18.367000 18.277719 20.056000
O 24.727000 4.929719 13.627000
H 25.214000 4.949719 12.803000
H 23.872000 4.570719 13.391000
O 25.798000 6.340719 19.358000
H 26.406000 6.108719 20.060000
H 25.855000 5.611719 18.741000
O 29.459000 20.682719 16.667000
H 28.665000 20.813719 16.150000
H 29.365000 19.801719 17.031000
O 24.357000 17.982719 21.636000
H 24.216000 18.118719 20.699000
H 23.973000 18.755719 22.051000
O 17.075000 13.745719 14.314000
H 17.700000 13.020719 14.340000
H 16.401000 13.459719 13.698000
O -0.179000 22.203719 18.996000
H 0.738000 22.047719 19.221000
H -0.268000 21.866719 18.105000
O 23.558000 23.274719 11.132000
H 22.642000 23.239719 10.859000
H 23.995000 23.778719 10.445000
O 21.853000 24.512719 21.822000
H 22.345000 25.284719 22.102000
H 21.528000 24.739719 20.951000
O 28.601000 16.098719 22.178000
H 28.188000 15.275719 22.439000
H 29.027000 15.899719 21.344000
O 20.611000 13.153719 16.000000
H 20.005000 12.453719 15.759000
H 20.235000 13.532719 16.795000
O 20.738000 7.715719 14.172000
H 20.945000 7.482719 15.077000
H 21.584000 7.936719 13.782000
O 27.071000 18.480719 21.842000
H 27.483000 17.642719 22.052000
H 26.132000 18.301719 21.874000
O 27.301000 7.484719 17.272000
H 26.836000 8.181719 16.811000
H 26.750000 7.287719 18.030000
O 21.724000 6.764719 16.619000
H 21.389000 6.034719 17.141000
H 21.676000 7.520719 17.205000
O 15.497000 10.517719 12.776000
H 16.166000 10.373719 12.108000
H 15.364000 11.465719 12.781000
O 28.167000 6.328719 20.877000
H 28.501000 6.269719 21.772000
H 28.624000 5.633719 20.404000
O 5.429000 13.969719 18.682000
H 5.333000 13.443719 19.476000
H 4.951000 13.481719 18.012000
O 26.883000 16.617719 19.371000
H 26.866000 17.294719 20.047000
H 26.756000 15.797719 19.848000
O 2.812000 20.991719 22.085000
H 2.306000 21.479719 22.735000
H 3.639000 20.793719 22.524000
O 26.380000 10.343719 13.599000
H 27.310000 10.383719 13.818000
H 25.954000 10.061719 14.408000
O 25.117000 11.430719 66.347000
H 26.030000 11.384719 66.629000
H 24.757000 12.181719 66.819000
O 24.080000 6.063719 21.923000
H 24.373000 5.700719 21.087000
H 24.079000 5.316719 22.522000
O 24.941000 12.446719 17.155000
H 25.772000 12.404719 17.629000
H 25.178000 12.759719 16.282000
O 23.317000 10.484719 14.214000
H 23.820000 11.204719 13.835000
H 22.826000 10.885719 14.931000
O 22.170000 14.585719 20.136000
H 22.537000 14.980719 20.927000
H 22.700000 14.940719 19.422000
O 19.947000 14.285719 18.342000
H 19.438000 13.601719 18.778000
H 20.756000 14.343719 18.851000
O 19.876000 17.599719 65.845000
H 20.021000 17.265719 64.960000
H 20.559000 17.185719 66.373000
O 27.836000 13.074719 18.215000
H 28.389000 13.541719 18.842000
H 27.975000 12.148719 18.416000
O 28.356000 13.455719 23.673000
H 27.704000 14.065719 24.018000
H 29.066000 13.474719 24.315000
O 22.288000 12.071719 21.182000
H 22.135000 12.864719 20.668000
H 22.637000 12.388719 22.014000
O -0.191000 9.013719 23.477000
H -1.123000 9.171719 23.627000
H -0.049000 9.263719 22.564000
O 5.928000 9.825719 11.196000
H 6.064000 9.372719 10.364000
H 5.158000 10.374719 11.047000
O 26.022000 14.506719 20.841000
H 25.326000 14.508719 20.183000
H 26.278000 13.587719 20.916000
O 21.531000 11.925719 65.287000
H 20.951000 11.544719 64.627000
H 21.237000 11.543719 66.114000
O 22.366000 11.168719 16.711000
H 21.829000 11.913719 16.441000
H 23.127000 11.562719 17.137000
O 20.903000 15.730719 15.100000
H 21.594000 15.833719 14.446000
H 21.038000 14.852719 15.455000
O 18.818000 23.415719 19.554000
H 18.319000 24.230719 19.605000
H 18.531000 23.008719 18.737000
O 21.404000 17.968719 19.905000
H 22.276000 18.244719 19.623000
H 21.139000 18.628719 20.546000
O 23.417000 13.063719 23.328000
H 22.948000 12.934719 24.152000
H 24.110000 12.402719 23.340000
O 21.668000 7.661719 22.443000
H 22.510000 7.378719 22.087000
H 21.332000 8.283719 21.797000
O 6.642000 16.853719 67.527000
H 6.924000 16.718719 66.622000
H 5.694000 16.974719 67.468000
O 3.491000 10.697719 18.462000
H 3.416000 10.023719 17.786000
H 4.302000 10.484719 18.924000
O 17.769000 18.991719 67.009000
H 16.999000 18.759719 66.491000
H 18.493000 18.537719 66.578000
O -0.190000 18.835719 13.208000
H 0.241000 19.399719 12.566000
H -0.324000 18.006719 12.749000
O 26.449000 14.962719 10.236000
H 26.183000 15.806719 9.872000
H 26.571000 15.130719 11.170000
O 14.333000 10.307719 23.642000
H 14.480000 10.600719 24.541000
H 15.149000 9.872719 23.395000
O 3.009000 18.426719 20.364000
H 2.567000 18.732719 21.156000
H 2.509000 17.657719 20.092000
O 26.571000 10.980719 19.167000
H 26.314000 11.573719 19.872000
H 25.883000 10.315719 19.150000
O 6.962000 16.474719 19.565000
H 6.372000 17.214719 19.421000
H 6.499000 15.723719 19.195000
O 25.421000 7.752719 66.278000
H 25.900000 8.123719 67.020000
H 24.672000 8.336719 66.161000
O 22.831000 21.451719 18.935000
H 23.349000 22.189719 18.614000
H 22.179000 21.849719 19.513000
O 24.275000 15.446719 18.676000
H 25.065000 15.965719 18.831000
H 24.199000 15.403719 17.723000
O 14.511000 10.566719 15.304000
H 14.577000 9.700719 15.706000
H 15.117000 10.533719 14.564000
O 15.752000 8.408719 18.047000
H 15.928000 7.699719 18.666000
H 15.310000 7.981719 17.313000
O 27.448000 20.147719 14.462000
H 26.823000 19.423719 14.510000
H 28.231000 19.763719 14.067000
O 3.161000 4.854719 24.941000
H 3.717000 4.282719 24.413000
H 2.674000 5.373719 24.302000
O 24.690000 9.017719 19.153000
H 24.924000 8.091719 19.091000
H 23.860000 9.087719 18.681000
O 27.680000 23.048719 14.109000
H 27.742000 23.120719 13.157000
H 27.454000 22.132719 14.267000
O 26.548000 23.692719 21.873000
H 26.359000 24.363719 21.218000
H 26.066000 22.921719 21.574000
O 1.808000 15.887719 19.933000
H 2.268000 15.624719 20.730000
H 1.211000 15.161719 19.750000
O 1.700000 9.344719 20.093000
H 1.099000 8.923719 19.479000
H 2.287000 9.859719 19.540000
O 19.317000 15.914719 20.983000
H 20.195000 16.177719 20.707000
H 19.196000 15.045719 20.600000
O 22.073000 8.999719 18.306000
H 22.000000 9.767719 17.739000
H 21.695000 9.279719 19.139000
O 25.542000 21.467719 20.527000
H 26.373000 21.059719 20.282000
H 25.051000 21.522719 19.707000
O 28.044000 16.770719 16.294000
H 27.876000 16.592719 17.220000
H 28.745000 16.162719 16.057000
O 28.220000 9.020719 20.646000
H 27.299000 9.178719 20.437000
H 28.303000 8.066719 20.660000
O 12.996000 15.950719 16.837000
H 12.692000 16.715719 16.348000
H 13.876000 15.782719 16.499000
O 25.609000 24.903719 14.517000
H 26.107000 25.495719 13.953000
H 26.139000 24.107719 14.557000
O 23.646000 5.675719 9.117000
H 23.045000 5.263719 8.497000
H 23.145000 5.741719 9.930000
O 28.616000 25.152719 18.525000
H 29.188000 25.486719 17.833000
H 29.085000 24.397719 18.880000
O 26.135000 22.576719 66.189000
H 25.496000 23.281719 66.292000
H 25.669000 21.899719 65.698000
O 24.118000 23.673719 18.199000
H 24.835000 24.145719 18.623000
H 23.684000 24.331719 17.657000
O 0.571000 25.468719 16.720000
H 0.499000 25.132719 15.826000
H 1.342000 25.029719 17.079000
O 20.821000 19.857719 21.768000
H 21.636000 19.757719 22.259000
H 20.885000 20.727719 21.372000
O 23.430000 20.505719 22.649000
H 23.664000 20.769719 23.539000
H 23.948000 21.080719 22.085000
O 0.307000 24.008719 14.457000
H -0.517000 23.524719 14.510000
H 0.405000 24.215719 13.528000
O 26.867000 26.229719 10.048000
H 26.768000 26.346719 10.993000
H 26.019000 25.893719 9.757000
O 29.217000 4.915719 9.454000
H 28.803000 4.160719 9.035000
H 28.869000 5.672719 8.984000
O 12.713000 4.025719 9.372000
H 11.867000 3.837719 9.781000
H 12.862000 3.287719 8.781000
O 17.471000 5.899719 16.933000
H 18.340000 5.722719 17.292000
H 17.621000 6.035719 15.997000
O 27.997000 23.814719 11.272000
H 27.630000 24.432719 10.639000
H 28.855000 24.179719 11.492000
O 24.372000 20.566719 65.125000
H 23.666000 20.485719 65.767000
H 24.935000 19.810719 65.292000
O 19.035000 24.666719 22.832000
H 19.002000 25.030719 23.716000
H 19.879000 24.956719 22.485000
O 2.390000 4.051719 67.441000
H 2.610000 4.214719 66.524000
H 2.790000 4.779719 67.917000
O -0.020000 18.475719 66.192000
H -0.133000 17.527719 66.268000
H -0.728000 18.755719 65.612000
O 25.807000 3.756719 65.505000
H 26.592000 4.228719 65.782000
H 26.072000 2.836719 65.495000
O 24.674000 6.918719 15.660000
H 24.971000 6.492719 14.856000
H 23.720000 6.936719 15.583000
O 19.433000 9.001719 12.305000
H 19.900000 8.548719 13.007000
H 20.111000 9.213719 11.664000
O 24.448000 24.933719 9.278000
H 23.660000 25.194719 8.803000
H 24.895000 24.327719 8.688000
O 21.332000 22.764719 24.123000
H 21.386000 23.267719 23.311000
H 20.550000 22.221719 24.018000
O 17.362000 22.729719 22.020000
H 17.867000 23.375719 22.515000
H 18.006000 22.306719 21.452000
O 24.523000 5.425719 67.167000
H 24.865000 6.160719 66.658000
H 24.770000 4.649719 66.663000
O 25.113000 4.768719 17.180000
H 25.276000 4.081719 16.534000
H 25.137000 5.581719 16.677000
O 17.189000 3.480719 66.546000
H 16.531000 3.915719 66.003000
H 17.898000 3.268719 65.939000
O 29.416000 5.716719 16.296000
H 28.649000 6.040719 16.769000
H 29.174000 4.832719 16.023000
O 28.128000 19.301719 24.371000
H 27.443000 19.072719 24.999000
H 27.752000 19.087719 23.517000
O 27.165000 9.014719 24.007000
H 26.658000 9.093719 23.200000
H 26.754000 8.289719 24.479000
O 23.458000 25.802719 16.286000
H 24.144000 25.434719 15.729000
H 23.461000 26.738719 16.084000
O 21.679000 24.084719 14.505000
H 21.579000 24.446719 15.385000
H 21.427000 23.165719 14.593000
O 27.712000 20.020719 19.752000
H 27.592000 19.440719 20.504000
H 28.568000 20.425719 19.896000
O 26.112000 24.752719 19.497000
H 25.799000 25.655719 19.446000
H 26.952000 24.763719 19.038000
O 2.931000 24.534719 17.581000
H 2.700000 23.674719 17.229000
H 3.243000 24.354719 18.467000
O 24.060000 3.801719 23.426000
H 24.788000 3.696719 24.039000
H 23.680000 2.925719 23.354000
O 20.959000 18.306719 15.083000
H 20.998000 17.349719 15.097000
H 20.212000 18.507719 14.518000
O 25.596000 26.541719 67.000000
H 25.723000 26.791719 67.915000
H 24.840000 27.052719 66.713000
O 20.942000 22.200719 20.755000
H 21.517000 22.870719 21.125000
H 20.166000 22.681719 20.467000
O 18.133000 26.147719 19.120000
H 19.066000 25.933719 19.086000
H 18.008000 26.785719 18.418000
O 22.973000 4.362719 18.621000
H 23.705000 4.758719 18.148000
H 23.359000 3.613719 19.076000
O 1.852000 4.216719 14.411000
H 2.783000 4.201719 14.189000
H 1.416000 4.470719 13.598000
O -0.332000 10.863719 16.567000
H -0.271000 10.041719 17.054000
H -0.638000 10.605719 15.698000
O 6.717000 21.088719 17.945000
H 7.234000 20.448719 18.435000
H 5.866000 20.667719 17.825000
O 18.416000 13.571719 32.702000
H 18.974000 13.366719 33.451000
H 18.150000 14.480719 32.842000
O 17.534000 7.255719 33.202000
H 16.899000 7.938719 32.991000
H 18.067000 7.630719 33.903000
O 6.917000 8.334719 34.583000
H 7.255000 8.226719 33.694000
H 6.215000 7.686719 34.653000
O 20.192000 6.796719 26.378000
H 20.935000 6.269719 26.083000
H 20.150000 7.521719 25.755000
O 8.790000 20.555719 33.005000
H 9.689000 20.308719 32.789000
H 8.719000 20.400719 33.947000
O 7.792000 18.566719 31.657000
H 8.627000 18.100719 31.616000
H 7.983000 19.355719 32.164000
O 17.596000 20.531719 32.556000
H 18.546000 20.506719 32.442000
H 17.456000 21.157719 33.266000
O 15.368000 4.845719 30.247000
H 16.025000 4.173719 30.065000
H 14.637000 4.630719 29.669000
O 1.583000 16.662719 29.765000
H 2.446000 16.582719 30.171000
H 1.295000 17.547719 29.987000
O 7.706000 14.886719 31.955000
H 7.603000 13.979719 32.244000
H 7.617000 15.405719 32.754000
O 27.958000 13.334719 28.788000
H 27.517000 13.146719 29.616000
H 27.518000 14.115719 28.453000
O 21.264000 25.460719 25.831000
H 21.281000 24.503719 25.814000
H 21.152000 25.682719 26.755000
O 11.707000 8.300719 33.192000
H 12.225000 9.002719 32.799000
H 12.347000 7.761719 33.657000
O 13.107000 9.879719 31.441000
H 12.515000 9.507719 30.788000
H 13.279000 10.768719 31.130000
O 8.637000 5.370719 33.062000
H 9.122000 5.322719 32.238000
H 9.002000 6.133719 33.510000
O 14.659000 11.802719 26.006000
H 15.242000 12.251719 26.618000
H 13.978000 12.445719 25.806000
O 24.279000 24.373719 26.223000
H 23.890000 24.285719 27.093000
H 24.488000 25.304719 26.146000
O 6.845000 11.757719 26.578000
H 7.641000 11.825719 26.050000
H 6.445000 10.932719 26.303000
O 18.231000 24.314719 29.503000
H 19.081000 23.916719 29.692000
H 17.851000 24.487719 30.364000
O 12.232000 13.178719 25.679000
H 11.980000 12.346719 26.080000
H 11.478000 13.750719 25.821000
O 5.578000 13.813719 30.359000
H 6.273000 14.275719 30.829000
H 5.154000 13.274719 31.026000
O 12.222000 12.121719 28.656000
H 11.999000 12.994719 28.979000
H 11.505000 11.564719 28.958000
O 15.455000 9.107719 32.691000
H 16.049000 9.858719 32.708000
H 14.708000 9.405719 32.172000
O 6.457000 22.057719 32.248000
H 7.341000 21.836719 32.541000
H 6.570000 22.344719 31.342000
O 15.806000 22.101719 26.571000
H 16.586000 21.998719 27.116000
H 16.036000 21.682719 25.741000
O 26.304000 17.957719 28.698000
H 25.508000 18.402719 28.988000
H 27.014000 18.548719 28.949000
O 12.197000 5.429719 31.366000
H 12.825000 4.957719 30.819000
H 12.629000 5.504719 32.217000
O 12.407000 17.206719 29.195000
H 12.095000 16.316719 29.362000
H 12.182000 17.371719 28.280000
O 2.555000 15.484719 33.869000
H 2.932000 14.811719 33.302000
H 3.066000 16.271719 33.681000
O 6.556000 16.897719 33.546000
H 5.654000 17.039719 33.260000
H 7.069000 17.538719 33.053000
O 10.295000 17.614719 31.740000
H 10.832000 17.165719 31.088000
H 10.849000 18.327719 32.057000
O 10.114000 14.903719 25.498000
H 9.570000 14.149719 25.729000
H 10.043000 15.490719 26.250000
O 14.636000 14.574719 30.511000
H 13.836000 15.034719 30.258000
H 15.342000 15.182719 30.291000
O 11.484000 21.885719 30.494000
H 12.125000 21.175719 30.532000
H 10.804000 21.563719 29.903000
O 5.393000 12.383719 34.646000
H 4.854000 13.048719 35.074000
H 5.747000 11.862719 35.367000
O 5.845000 9.872719 31.062000
H 5.716000 9.567719 30.164000
H 5.033000 9.640719 31.513000
O 14.017000 14.677719 27.408000
H 13.325000 14.085719 27.114000
H 14.824000 14.173719 27.303000
O 16.544000 16.914719 30.300000
H 16.240000 16.976719 29.395000
H 16.136000 17.659719 30.742000
O 15.980000 7.683719 30.066000
H 16.008000 6.741719 30.231000
H 15.576000 8.053719 30.851000
O 14.948000 17.214719 33.951000
H 14.152000 17.690719 34.186000
H 14.652000 16.320719 33.778000
O 7.834000 11.940719 29.221000
H 7.517000 11.892719 28.320000
H 7.139000 12.396719 29.696000
O 0.213000 21.933719 30.716000
H 0.138000 22.199719 29.800000
H 0.932000 22.462719 31.062000
O 0.619000 9.039719 34.750000
H 0.844000 9.739719 35.363000
H 1.400000 8.487719 34.719000
O 14.982000 17.800719 28.054000
H 14.189000 17.313719 28.281000
H 14.681000 18.698719 27.920000
O 13.439000 5.359719 33.917000
H 12.807000 5.223719 34.624000
H 13.642000 4.478719 33.604000
O 10.162000 7.655719 30.929000
H 10.647000 7.889719 31.720000
H 10.754000 7.076719 30.447000
O 11.514000 13.943719 32.681000
H 11.111000 14.534719 33.317000
H 10.996000 13.140719 32.737000
O -0.048000 4.458719 30.432000
H -0.589000 5.242719 30.537000
H -0.537000 3.911719 29.817000
O 14.299000 14.714719 33.181000
H 13.436000 14.301719 33.166000
H 14.619000 14.635719 32.282000
O 0.064000 8.441719 29.948000
H -0.451000 8.716719 29.189000
H -0.490000 7.801719 30.395000
O 4.724000 7.715719 29.149000
H 5.041000 7.175719 28.425000
H 3.884000 7.325719 29.389000
O 3.319000 10.847719 25.276000
H 2.866000 10.006719 25.214000
H 2.718000 11.408719 25.766000
O 18.262000 21.586719 27.645000
H 18.105000 20.703719 27.312000
H 19.130000 21.817719 27.316000
O 12.967000 19.662719 30.988000
H 13.004000 18.868719 30.455000
H 13.859000 19.771719 31.319000
O 6.245000 5.818719 32.054000
H 7.103000 5.962719 32.451000
H 6.275000 6.310719 31.233000
O 11.643000 14.767719 30.097000
H 11.376000 14.518719 30.982000
H 10.831000 14.760719 29.591000
O 10.013000 10.897719 29.737000
H 9.952000 10.973719 30.690000
H 9.179000 11.240719 29.416000
O 11.240000 18.201719 26.617000
H 10.945000 19.091719 26.813000
H 12.036000 18.321719 26.099000
O 25.408000 22.718719 34.426000
H 25.022000 23.543719 34.718000
H 26.326000 22.774719 34.692000
O 12.217000 23.333719 26.092000
H 11.743000 24.013719 25.614000
H 12.937000 23.798719 26.519000
O 7.777000 8.383719 32.027000
H 8.504000 8.293719 31.411000
H 7.179000 9.000719 31.605000
O 9.967000 11.839719 32.560000
H 10.163000 11.668719 33.481000
H 9.027000 12.017719 32.544000
O 3.993000 17.956719 27.527000
H 3.961000 18.684719 28.148000
H 4.096000 18.375719 26.672000
O 7.120000 18.895719 29.202000
H 7.305000 18.508719 30.058000
H 7.038000 18.145719 28.613000
O 14.074000 20.691719 28.364000
H 14.771000 20.665719 29.019000
H 14.490000 21.064719 27.586000
O 15.618000 18.909719 31.890000
H 15.603000 18.315719 32.641000
H 16.380000 19.467719 32.041000
O 2.448000 26.259719 33.348000
H 2.384000 25.669719 34.099000
H 3.331000 26.118719 33.007000
O 1.767000 11.021719 31.935000
H 1.641000 11.014719 30.986000
H 0.933000 10.713719 32.291000
O 10.860000 24.089719 28.854000
H 11.152000 23.762719 28.003000
H 11.098000 23.397719 29.471000
O 7.151000 12.295719 32.443000
H 6.815000 12.434719 33.328000
H 6.549000 11.660719 32.054000
O 3.544000 8.712719 32.450000
H 2.908000 8.021719 32.265000
H 3.010000 9.483719 32.644000
O 19.506000 20.003719 29.937000
H 19.306000 19.114719 29.645000
H 19.270000 20.559719 29.195000
O 3.702000 13.012719 32.324000
H 2.954000 12.421719 32.234000
H 4.212000 12.646719 33.046000
O 4.960000 19.948719 32.586000
H 5.559000 20.669719 32.393000
H 4.898000 19.936719 33.541000
O 9.373000 14.199719 28.578000
H 8.832000 13.422719 28.722000
H 8.776000 14.935719 28.708000
O 1.669000 12.383719 27.280000
H 1.519000 11.814719 28.035000
H 2.348000 12.992719 27.569000
O 8.961000 21.154719 29.451000
H 9.009000 21.214719 28.497000
H 8.525000 20.319719 29.618000
O 16.516000 16.884719 25.371000
H 15.646000 17.005719 25.752000
H 16.499000 17.401719 24.565000
O 0.337000 22.763719 27.999000
H 0.757000 22.114719 27.434000
H 0.840000 23.565719 27.859000
O 1.404000 20.922719 26.143000
H 1.383000 21.476719 25.363000
H 0.721000 20.269719 25.993000
O 6.598000 3.522719 27.648000
H 7.311000 4.062719 27.991000
H 6.350000 2.958719 28.381000
O 7.808000 7.404719 26.850000
H 6.880000 7.307719 26.636000
H 8.029000 6.602719 27.325000
O 10.789000 10.155719 25.553000
H 10.177000 9.633719 25.033000
H 10.799000 9.730719 26.410000
O 15.052000 8.614719 27.715000
H 14.923000 9.520719 27.996000
H 15.437000 8.179719 28.476000
O 4.485000 13.748719 27.785000
H 5.082000 13.110719 27.393000
H 4.799000 13.850719 28.683000
O 10.079000 8.527719 28.015000
H 9.265000 8.264719 27.585000
H 9.796000 8.995719 28.800000
O 2.620000 15.638719 26.514000
H 2.830000 16.443719 26.988000
H 3.399000 15.090719 26.615000
O 15.866000 7.287719 25.584000
H 16.575000 6.744719 25.928000
H 15.525000 7.751719 26.350000
O 14.030000 25.225719 27.134000
H 14.964000 25.170719 27.335000
H 13.617000 25.443719 27.970000
O 10.331000 3.407719 34.526000
H 9.787000 2.906719 35.134000
H 9.748000 4.087719 34.187000
O 2.968000 22.088719 34.234000
H 2.881000 22.294719 33.303000
H 3.022000 22.941719 34.664000
O 5.881000 20.681719 27.435000
H 6.671000 21.092719 27.084000
H 6.196000 19.889719 27.870000
O 2.748000 22.672719 31.496000
H 3.189000 23.247719 30.871000
H 3.125000 21.807719 31.335000
O 14.857000 22.479719 34.110000
H 14.548000 22.848719 33.283000
H 15.740000 22.835719 34.217000
O 10.419000 23.737719 32.337000
H 10.708000 22.913719 31.944000
H 10.509000 23.598719 33.280000
O 8.487000 25.601719 31.947000
H 9.327000 25.142719 31.950000
H 8.138000 25.458719 31.067000
O 1.712000 25.142719 28.274000
H 1.998000 25.760719 27.601000
H 2.340000 25.256719 28.987000
O 16.325000 21.191719 30.003000
H 16.792000 21.544719 29.245000
H 17.007000 21.044719 30.658000
O 27.629000 21.990719 28.375000
H 28.441000 22.488719 28.278000
H 27.173000 22.110719 27.542000
O 8.069000 21.621719 26.286000
H 7.650000 22.064719 25.548000
H 8.898000 21.298719 25.933000
O 6.601000 24.296719 33.683000
H 6.606000 23.438719 33.259000
H 7.327000 24.769719 33.277000
O 3.966000 19.951719 25.667000
H 3.210000 20.297719 26.141000
H 4.721000 20.214719 26.194000
O 14.748000 23.480719 31.470000
H 15.151000 22.725719 31.042000
H 15.209000 24.236719 31.108000
O 12.497000 26.177719 29.117000
H 12.143000 26.872719 29.672000
H 11.822000 25.499719 29.121000
O 14.234000 26.317719 34.086000
H 14.962000 26.804719 33.699000
H 13.724000 26.012719 33.335000
O 17.525000 25.124719 32.018000
H 18.272000 25.356719 32.569000
H 16.961000 25.897719 32.039000
O 11.478000 20.987719 27.680000
H 12.380000 20.722719 27.859000
H 11.560000 21.771719 27.137000
O 9.704000 7.354719 34.566000
H 9.054000 8.050719 34.471000
H 10.427000 7.622719 33.998000
O 5.063000 26.034719 32.175000
H 5.580000 25.391719 32.659000
H 5.457000 26.877719 32.400000
O 28.118000 23.637719 34.845000
H 28.799000 24.191719 34.463000
H 28.306000 23.637719 35.783000
O 5.924000 25.884719 28.534000
H 5.770000 25.347719 27.756000
H 6.828000 25.692719 28.783000
O 6.783000 22.604719 29.700000
H 7.633000 22.203719 29.521000
H 6.414000 22.782719 28.835000
O 3.907000 24.882719 30.024000
H 4.055000 25.226719 30.905000
H 4.707000 25.097719 29.544000
O 8.678000 25.433719 28.927000
H 9.043000 26.314719 29.013000
H 9.442000 24.856719 28.925000
O 12.733000 25.322719 32.128000
H 11.911000 24.835719 32.191000
H 13.384000 24.664719 31.886000
O 9.669000 4.328719 30.711000
H 10.575000 4.615719 30.824000
H 9.739000 3.408719 30.457000
O 27.977000 25.775719 31.381000
H 27.163000 26.085719 31.777000
H 27.894000 24.822719 31.374000
O 4.050000 19.611719 29.837000
H 4.382000 19.839719 30.706000
H 4.671000 20.014719 29.230000
O 11.360000 19.830719 33.177000
H 12.018000 19.886719 32.484000
H 11.797000 19.355719 33.885000
O 3.393000 5.765719 32.505000
H 3.340000 4.852719 32.788000
H 4.315000 5.997719 32.613000
O 15.154000 25.960719 30.402000
H 15.726000 26.471719 29.829000
H 14.303000 26.393719 30.339000
O 17.795000 16.315719 32.866000
H 17.395000 16.366719 31.998000
H 17.161000 16.733719 33.448000
O 28.071000 6.674719 31.000000
H 27.800000 6.832719 31.905000
H 27.297000 6.301719 30.580000
O 5.180000 6.195719 26.813000
H 5.535000 5.307719 26.853000
H 4.686000 6.219719 25.993000
O 28.601000 19.473719 28.280000
H 28.213000 20.321719 28.062000
H 29.076000 19.216719 27.489000
O 6.050000 24.111719 26.445000
H 5.287000 24.493719 26.012000
H 6.799000 24.553719 26.046000
O 8.540000 25.551719 26.284000
H 8.971000 25.514719 27.138000
H 9.252000 25.455719 25.652000
O 16.860000 24.937719 27.313000
H 16.695000 24.097719 26.886000
H 17.205000 24.704719 28.175000
O 22.864000 13.037719 33.647000
H 22.872000 13.884719 34.094000
H 23.224000 13.221719 32.779000
O 27.905000 10.513719 34.682000
H 28.418000 9.930719 34.122000
H 28.425000 11.314719 34.735000
O 26.624000 12.711719 31.338000
H 26.187000 11.886719 31.548000
H 26.947000 13.033719 32.179000
O 20.040000 20.872719 33.731000
H 19.628000 21.611719 34.178000
H 20.099000 20.190719 34.400000
O 22.656000 20.091719 27.200000
H 21.863000 20.566719 26.951000
H 23.150000 20.712719 27.735000
O 24.719000 16.415719 30.619000
H 25.083000 17.187719 31.052000
H 24.066000 16.766719 30.012000
O 22.823000 17.786719 29.101000
H 22.694000 18.675719 28.770000
H 22.122000 17.664719 29.741000
O 21.091000 22.115719 26.840000
H 21.443000 22.389719 25.993000
H 21.603000 22.605719 27.483000
O 18.813000 17.492719 29.127000
H 18.476000 17.791719 28.282000
H 18.032000 17.358719 29.663000
O 0.003000 25.066719 25.580000
H -0.529000 24.291719 25.397000
H -0.271000 25.705719 24.922000
O 20.445000 11.240719 27.787000
H 20.563000 10.293719 27.858000
H 19.533000 11.387719 28.038000
O 0.049000 3.855719 33.201000
H -0.339000 3.037719 33.510000
H -0.315000 3.978719 32.324000
O 2.654000 7.845719 25.694000
H 3.082000 7.519719 24.903000
H 1.785000 7.443719 25.680000
O 20.894000 6.269719 31.437000
H 20.482000 6.081719 30.594000
H 20.238000 6.016719 32.087000
O 24.217000 14.005719 31.454000
H 25.092000 13.625719 31.372000
H 24.290000 14.865719 31.040000
O 21.256000 21.313719 31.415000
H 20.839000 21.136719 32.258000
H 20.774000 20.772719 30.790000
O 23.404000 9.411719 29.929000
H 23.147000 10.154719 30.474000
H 22.647000 9.256719 29.363000
O 0.368000 19.099719 30.245000
H -0.254000 19.180719 29.522000
H 0.926000 19.874719 30.170000
O 23.412000 7.370719 34.166000
H 23.687000 7.363719 33.249000
H 24.054000 7.928719 34.605000
O 19.655000 6.408719 28.945000
H 19.867000 6.505719 28.017000
H 19.392000 5.493719 29.038000
O 23.402000 17.596719 33.998000
H 22.817000 17.648719 33.242000
H 24.277000 17.504719 33.619000
O 26.363000 16.564719 34.527000
H 26.693000 15.671719 34.424000
H 26.602000 17.004719 33.712000
O -0.551000 9.950719 32.065000
H -1.496000 9.849719 31.948000
H -0.167000 9.504719 31.310000
O 3.819000 17.318719 32.607000
H 4.054000 18.232719 32.447000
H 3.996000 16.876719 31.777000
O 19.725000 12.907719 30.620000
H 19.169000 13.060719 31.384000
H 20.417000 12.328719 30.938000
O 28.426000 17.093719 32.411000
H 28.490000 16.695719 31.543000
H 28.724000 17.993719 32.286000
O 22.364000 5.334719 25.406000
H 22.819000 5.299719 24.564000
H 23.065000 5.336719 26.058000
O 20.885000 15.146719 29.778000
H 20.473000 14.346719 30.103000
H 20.155000 15.688719 29.480000
O 23.899000 7.000719 31.473000
H 23.761000 7.831719 31.018000
H 23.040000 6.578719 31.470000
O 28.273000 8.972719 27.852000
H 27.525000 8.900719 28.446000
H 28.134000 9.799719 27.390000
O 26.563000 15.279719 27.675000
H 26.636000 15.984719 28.318000
H 25.659000 14.975719 27.753000
O 26.649000 13.769719 33.830000
H 25.883000 13.234719 34.041000
H 27.371000 13.350719 34.298000
O 26.839000 9.484719 31.677000
H 26.495000 9.097719 30.872000
H 26.818000 8.770719 32.314000
O 10.926000 4.161719 27.402000
H 11.057000 3.244719 27.645000
H 11.153000 4.198719 26.473000
O 9.153000 12.424719 25.362000
H 8.846000 12.163719 24.493000
H 9.921000 11.875719 25.520000
O -0.180000 15.636719 34.362000
H -0.585000 16.353719 33.875000
H 0.713000 15.588719 34.021000
O 20.098000 15.883719 34.279000
H 20.176000 15.028719 34.703000
H 19.157000 16.003719 34.153000
O 17.855000 11.561719 28.865000
H 18.285000 12.078719 29.546000
H 17.902000 10.659719 29.182000
O 24.692000 24.824719 30.458000
H 24.134000 25.566719 30.223000
H 25.004000 25.030719 31.339000
O 18.930000 8.769719 34.852000
H 19.227000 9.010719 33.975000
H 18.517000 9.562719 35.192000
O 25.604000 5.973719 29.695000
H 25.021000 5.981719 30.454000
H 25.063000 5.636719 28.981000
O 18.362000 8.959719 29.388000
H 17.531000 8.553719 29.633000
H 18.918000 8.226719 29.124000
O 28.939000 15.795719 30.022000
H 29.881000 15.922719 30.137000
H 28.847000 14.866719 29.810000
O 4.425000 10.099719 28.070000
H 4.395000 10.104719 27.113000
H 4.417000 9.172719 28.306000
O 16.721000 11.522719 32.263000
H 16.221000 11.815719 31.501000
H 17.362000 12.217719 32.410000
O 1.964000 10.473719 29.204000
H 1.769000 9.621719 29.593000
H 2.865000 10.393719 28.890000
O 22.183000 16.730719 26.797000
H 22.336000 17.192719 27.621000
H 22.188000 15.803719 27.036000
O 19.435000 9.798719 32.212000
H 18.693000 10.396719 32.120000
H 19.231000 9.070719 31.625000
O 4.472000 16.223719 30.217000
H 4.790000 15.324719 30.308000
H 5.095000 16.639719 29.622000
O 27.794000 11.446719 26.658000
H 28.321000 11.776719 25.930000
H 28.058000 11.981719 27.407000
O 26.099000 18.646719 26.099000
H 26.247000 18.448719 27.024000
H 25.431000 18.019719 25.823000
O 23.383000 22.897719 32.544000
H 22.870000 22.206719 32.125000
H 23.994000 22.431719 33.114000
O 14.550000 11.812719 30.158000
H 14.611000 12.751719 30.336000
H 13.785000 11.726719 29.589000
O -0.106000 13.702719 25.805000
H -0.251000 14.558719 26.209000
H 0.419000 13.220719 26.444000
O 28.155000 5.255719 26.285000
H 28.776000 5.980719 26.222000
H 28.622000 4.580719 26.778000
O 25.825000 8.739719 29.203000
H 24.956000 9.075719 29.426000
H 25.794000 7.814719 29.448000
O 24.297000 13.618719 28.202000
H 23.408000 13.814719 27.908000
H 24.217000 13.507719 29.149000
O 21.617000 16.763719 31.917000
H 21.158000 16.370719 32.659000
H 21.578000 16.098719 31.230000
O 18.607000 4.843719 32.581000
H 18.783000 4.540719 33.472000
H 18.042000 5.607719 32.694000
O -0.286000 16.034719 26.981000
H -0.813000 16.002719 27.779000
H 0.617000 15.942719 27.286000
O -0.467000 7.595719 25.790000
H -0.452000 8.156719 25.015000
H -0.923000 8.113719 26.453000
O 21.641000 11.227719 31.329000
H 21.941000 11.729719 32.087000
H 20.948000 10.663719 31.673000
O 23.113000 9.403719 26.088000
H 22.569000 9.564719 25.317000
H 23.698000 10.159719 26.132000
O 21.914000 14.075719 27.564000
H 21.655000 13.155719 27.628000
H 21.511000 14.492719 28.325000
O 16.505000 13.342719 27.136000
H 16.951000 13.369719 26.289000
H 17.138000 12.932719 27.727000
O 2.821000 5.520719 29.864000
H 1.996000 5.035719 29.884000
H 3.105000 5.547719 30.778000
O 25.117000 11.430719 26.347000
H 26.030000 11.384719 26.629000
H 24.757000 12.181719 26.819000
O 19.876000 17.599719 25.845000
H 20.021000 17.265719 24.960000
H 20.559000 17.185719 26.373000
O 21.531000 11.925719 25.287000
H 20.951000 11.544719 24.627000
H 21.237000 11.543719 26.114000
O 12.397000 6.934719 28.408000
H 12.971000 7.604719 28.037000
H 11.512000 7.263719 28.252000
O 6.642000 16.853719 27.527000
H 6.924000 16.718719 26.622000
H 5.694000 16.974719 27.468000
O 17.769000 18.991719 27.009000
H 16.999000 18.759719 26.491000
H 18.493000 18.537719 26.578000
O 25.421000 7.752719 26.278000
H 25.900000 8.123719 27.020000
H 24.672000 8.336719 26.161000
O 19.839000 25.818719 33.203000
H 20.724000 25.738719 32.846000
H 19.848000 26.646719 33.683000
O 29.009000 19.751719 32.575000
H 29.596000 19.568719 31.842000
H 28.358000 20.355719 32.217000
O 26.135000 22.576719 26.189000
H 25.496000 23.281719 26.292000
H 25.669000 21.899719 25.698000
O 22.243000 25.368719 32.103000
H 22.503000 25.792719 32.922000
H 22.892000 24.677719 31.975000
O 27.080000 6.899719 33.551000
H 27.757000 6.766719 34.215000
H 26.325000 6.408719 33.877000
O 25.550000 26.152719 32.673000
H 24.813000 26.673719 32.355000
H 25.856000 26.618719 33.451000
O 25.511000 20.301719 29.903000
H 26.056000 21.030719 29.608000
H 25.676000 20.242719 30.844000
O 0.285000 19.809719 34.990000
H -0.218000 19.841719 34.176000
H 0.987000 20.447719 34.863000
O 20.958000 23.664719 29.937000
H 21.202000 24.275719 30.633000
H 21.027000 22.799719 30.341000
O 23.745000 22.063719 28.928000
H 23.700000 22.661719 29.674000
H 24.196000 21.290719 29.267000
O 20.850000 25.856719 28.431000
H 20.426000 25.109719 28.853000
H 20.158000 26.513719 28.354000
O 17.471000 23.010719 33.989000
H 17.962000 23.073719 34.809000
H 17.630000 23.846719 33.550000
O 24.372000 20.566719 25.125000
H 23.666000 20.485719 25.767000
H 24.935000 19.810719 25.292000
O 2.390000 4.051719 27.441000
H 2.610000 4.214719 26.524000
H 2.790000 4.779719 27.917000
O -0.020000 18.475719 26.192000
H -0.133000 17.527719 26.268000
H -0.728000 18.755719 25.612000
O 25.807000 3.756719 25.505000
H 26.592000 4.228719 25.782000
H 26.072000 2.836719 25.495000
O 25.871000 18.215719 32.328000
H 26.757000 17.880719 32.187000
H 25.999000 19.117719 32.620000
O 21.615000 8.705719 28.103000
H 22.160000 9.021719 27.382000
H 21.207000 7.908719 27.765000
O 27.000000 23.343719 30.527000
H 27.272000 22.979719 29.684000
H 26.187000 23.811719 30.335000
O 26.439000 20.931719 32.318000
H 26.094000 21.387719 33.085000
H 26.957000 21.592719 31.858000
O 22.275000 3.962719 32.297000
H 21.962000 4.054719 33.197000
H 22.008000 4.774719 31.866000
O 24.523000 5.425719 27.167000
H 24.865000 6.160719 26.658000
H 24.770000 4.649719 26.663000
O 13.869000 4.247719 28.019000
H 13.223000 4.952719 28.065000
H 14.234000 4.314719 27.136000
O 17.189000 3.480719 26.546000
H 16.531000 3.915719 26.003000
H 17.898000 3.268719 25.939000
O 18.760000 3.986719 28.824000
H 18.405000 3.763719 27.963000
H 18.053000 3.781719 29.436000
O 25.596000 26.541719 27.000000
H 25.723000 26.791719 27.915000
H 24.840000 27.052719 26.713000
O 8.495000 5.139719 28.364000
H 9.163000 4.922719 27.713000
H 8.920000 4.976719 29.207000
